ITEM: TIMESTEP
0
ITEM: NUMBER OF ATOMS
1513
ITEM: BOX BOUNDS pp pp pp
-36.894586 31.525385
-37.137318 32.862682
-30.614851 29.650917
ITEM: ATOMS id type x y z sphere_id kind radius
1 27 2.833112 -12.076363 17.719611 0 0 1.500
2 27 13.377851 -17.417575 8.366343 0 0 1.500
3 27 10.564558 -16.591712 19.008961 0 1 1.200
4 27 11.810173 -14.454825 18.927802 0 1 1.200
5 27 6.045189 -12.834857 12.672223 0 1 1.200
6 27 10.667466 -13.108548 11.136481 0 1 1.200
7 27 14.022064 -12.711273 15.932512 0 1 1.200
8 27 8.295370 -17.077854 16.017638 0 1 1.200
9 27 9.949945 -13.524785 13.058481 0 1 1.200
10 27 10.187413 -11.420077 13.548541 0 1 1.200
11 27 5.812137 -13.302203 18.446033 0 1 1.200
12 27 13.526649 -17.237962 15.969582 0 1 1.200
13 27 9.076391 -17.688760 13.800844 0 1 1.200
14 27 6.138855 -15.497901 18.711348 0 1 1.200
15 27 9.231283 -16.139402 12.025215 0 1 1.200
16 27 6.060364 -11.594501 14.733218 0 1 1.200
17 27 13.006931 -18.464367 13.867035 0 1 1.200
18 27 11.615915 -19.151304 15.230578 0 1 1.200
19 27 10.815668 -17.156071 15.539656 0 1 1.200
20 27 9.777915 -13.196086 17.434778 0 1 1.200
21 27 13.179033 -15.645739 10.858603 0 1 1.200
22 27 6.064074 -16.327968 11.625666 0 1 1.200
23 27 10.253375 -10.648871 15.599947 0 1 1.200
24 27 14.220407 -12.918565 13.572221 0 1 1.200
25 27 14.503055 -16.683803 13.945466 0 1 1.200
26 27 10.078781 -15.540135 17.385045 0 1 1.200
27 27 7.931108 -14.956013 17.376146 0 1 1.200
28 27 7.662476 -14.613382 12.774603 0 1 1.200
29 27 9.439888 -19.372126 15.818188 0 1 1.200
30 27 6.895170 -11.254507 17.974062 0 1 1.200
31 27 13.113462 -13.129239 17.848046 0 1 1.200
32 27 11.641561 -18.068033 17.238023 0 1 1.200
33 27 9.708612 -10.698899 17.621243 0 1 1.200
34 27 8.256828 -12.651162 11.840884 0 2 1.100
35 27 14.141358 -14.992986 16.775371 0 2 1.100
36 27 11.989456 -14.712430 16.377051 0 2 1.100
37 27 7.189129 -16.444118 13.856613 0 2 1.100
38 27 11.427127 -17.141521 10.512292 0 2 1.100
39 27 4.705851 -14.617912 16.984366 0 2 1.100
40 27 11.112574 -14.995719 9.999410 0 2 1.100
41 27 7.614454 -13.560207 19.477328 0 2 1.100
42 27 9.894027 -13.806959 19.650917 0 2 1.100
43 27 12.364598 -13.986222 14.152935 0 2 1.100
44 27 9.456315 -18.192762 17.737651 0 2 1.100
45 27 5.307581 -12.375139 16.426607 0 2 1.100
46 27 11.417336 -15.207430 12.363555 0 2 1.100
47 27 4.971075 -14.662802 12.786312 0 2 1.100
48 27 10.249885 -19.678418 13.558250 0 2 1.100
49 27 12.150596 -11.195220 17.069147 0 2 1.100
50 27 11.214053 -12.807924 15.754303 0 2 1.100
51 27 7.438103 -13.020777 16.779977 0 2 1.100
52 27 12.463406 -16.044825 14.382445 0 2 1.100
53 27 9.777777 -18.398188 10.789143 0 2 1.100
54 27 13.010985 -13.631151 11.469872 0 2 1.100
55 27 14.462471 -15.013512 12.531481 0 2 1.100
56 27 14.749165 -14.672934 14.821943 0 2 1.100
57 27 11.220096 -12.093036 18.825985 0 2 1.100
58 27 9.231048 -16.374549 9.707805 0 2 1.100
59 27 8.734905 -11.775268 19.087916 0 2 1.100
60 27 6.753936 -13.854486 14.679348 0 2 1.100
61 27 7.643449 -19.360127 14.524472 0 2 1.100
62 27 4.454272 -13.529279 14.617803 0 2 1.100
63 27 6.480484 -15.587543 15.838738 0 2 1.100
64 27 8.902201 -14.388861 10.434763 0 2 1.100
65 27 6.577862 -18.320048 12.805542 0 2 1.100
66 27 7.845367 -10.673402 16.117132 0 2 1.100
67 27 8.592534 -15.618727 19.484135 0 2 1.100
68 27 7.682826 -17.362176 10.848466 0 2 1.100
69 27 7.564740 -17.214970 18.377721 0 2 1.100
70 27 8.920144 -12.591020 15.315052 0 2 1.100
71 27 11.676240 -19.003805 11.930450 0 2 1.100
72 27 12.612658 -11.371696 14.849022 0 2 1.100
73 27 8.540276 -19.206987 12.263362 0 2 1.100
74 27 12.673113 -16.211946 17.884470 0 2 1.100
75 27 12.082385 -12.196630 12.831072 0 2 1.100
76 27 7.163644 -18.696617 16.725592 0 2 1.100
77 27 13.449270 -17.373284 12.000897 0 2 1.100
78 27 4.263092 -15.699032 15.225872 0 2 1.100
79 27 7.949917 -11.520691 13.747011 0 2 1.100
80 27 11.075393 -17.246976 13.015751 0 2 1.100
81 27 6.814916 -14.602125 10.783048 0 2 1.100
82 27 4.949750 -16.718357 13.558963 0 2 1.100
83 27 5.715862 -18.023228 15.151227 0 2 1.100
84 27 5.376614 -16.969734 17.129697 0 2 1.100
85 27 9.682502 -15.107509 15.058429 0 3 2.400
86 27 9.350241 -15.039594 14.645841 0 4 2.800
87 24 4.072676 16.311912 7.671067 1 0 1.500
88 24 16.354094 -0.922468 2.234629 1 0 1.500
89 24 1.765040 1.849159 8.024439 1 1 1.200
90 24 0.670352 0.051879 7.861497 1 1 1.200
91 24 -0.199276 1.709161 6.996979 1 1 1.200
92 24 5.498032 6.459331 15.210370 1 1 1.200
93 24 1.363076 3.801346 1.114765 1 1 1.200
94 24 0.749717 2.239424 -0.963668 1 1 1.200
95 24 -0.270823 2.694866 0.773629 1 1 1.200
96 24 12.274897 6.526907 15.421714 1 1 1.200
97 24 4.418379 0.388089 -6.047993 1 1 1.200
98 24 19.770287 0.251245 5.696772 1 1 1.200
99 24 5.491344 4.546739 -9.109019 1 1 1.200
100 24 2.397812 11.142003 8.511629 1 1 1.200
101 24 8.917960 3.433701 15.454622 1 1 1.200
102 24 5.992693 11.980426 10.891543 1 1 1.200
103 24 6.521281 -0.128632 -6.118046 1 1 1.200
104 24 5.233842 14.094689 10.773568 1 1 1.200
105 24 7.570940 10.296206 12.588036 1 1 1.200
106 24 1.845712 12.373686 10.132039 1 1 1.200
107 24 8.612994 6.759388 14.832537 1 1 1.200
108 24 -0.332983 4.510033 7.033351 1 1 1.200
109 24 8.899088 3.344549 -10.193205 1 1 1.200
110 24 16.927412 -0.423775 7.628380 1 1 1.200
111 24 3.082476 13.426738 8.879298 1 1 1.200
112 24 8.451292 5.364053 16.234924 1 1 1.200
113 24 4.070589 1.926518 12.281590 1 1 1.200
114 24 8.621898 1.995778 10.725174 1 1 1.200
115 24 9.819356 5.118812 14.455943 1 1 1.200
116 24 9.109083 7.239263 12.385494 1 1 1.200
117 24 1.884522 4.398958 7.678205 1 1 1.200
118 24 2.766686 10.778778 12.687724 1 1 1.200
119 24 6.067695 0.137672 11.831419 1 1 1.200
120 24 7.835448 1.989684 12.997759 1 1 1.200
121 24 17.050658 4.868926 12.046349 1 1 1.200
122 24 11.104523 12.063477 13.698531 1 1 1.200
123 24 10.771784 3.820622 13.086739 1 1 1.200
124 24 7.019118 15.002746 10.575692 1 1 1.200
125 24 10.344307 13.744153 12.355742 1 1 1.200
126 24 0.030663 5.441047 0.724005 1 1 1.200
127 24 -0.185291 1.995169 4.417705 1 1 1.200
128 24 15.164194 -0.994444 8.487857 1 1 1.200
129 24 16.373389 -3.255568 7.032066 1 1 1.200
130 24 17.612102 -2.160465 6.100285 1 1 1.200
131 24 17.345452 -0.208635 9.848448 1 1 1.200
132 24 15.608408 -3.149649 8.954656 1 1 1.200
133 24 17.789764 -2.126691 8.505551 1 1 1.200
134 24 3.543017 7.502667 15.283639 1 1 1.200
135 24 16.365246 -1.138915 -6.112434 1 1 1.200
136 24 3.198222 7.723078 8.800611 1 1 1.200
137 24 0.344160 11.498779 8.652026 1 1 1.200
138 24 12.120142 -1.186394 12.145585 1 1 1.200
139 24 8.034167 0.887635 14.800685 1 1 1.200
140 24 16.041406 4.969309 13.588976 1 1 1.200
141 24 10.406272 7.382756 15.824114 1 1 1.200
142 24 6.417273 1.949609 10.244118 1 1 1.200
143 24 4.013456 5.073899 7.846568 1 1 1.200
144 24 7.287170 3.800953 9.670013 1 1 1.200
145 24 7.959611 4.190365 11.688147 1 1 1.200
146 24 5.971482 7.074057 10.620909 1 1 1.200
147 24 4.488721 2.956130 7.880932 1 1 1.200
148 24 4.610809 1.897346 9.695495 1 1 1.200
149 24 0.701818 4.788091 -1.226903 1 1 1.200
150 24 14.387019 4.951850 14.546963 1 1 1.200
151 24 9.898153 8.637775 13.689605 1 1 1.200
152 24 6.800386 14.234343 12.681223 1 1 1.200
153 24 8.181985 0.419281 -7.130973 1 1 1.200
154 24 12.317815 8.810212 1.031588 1 1 1.200
155 24 1.065699 6.984936 7.733846 1 1 1.200
156 24 0.977243 3.947705 9.948985 1 1 1.200
157 24 2.521053 3.466320 11.902107 1 1 1.200
158 24 19.368895 -1.274572 -2.730666 1 1 1.200
159 24 1.797708 8.634371 13.885461 1 1 1.200
160 24 1.286946 3.584748 5.383500 1 1 1.200
161 24 3.978686 5.332629 11.590715 1 1 1.200
162 24 13.927941 5.681568 12.714692 1 1 1.200
163 24 16.316957 7.094804 12.982777 1 1 1.200
164 24 3.319273 9.219242 11.188598 1 1 1.200
165 24 13.758056 2.905724 12.053254 1 1 1.200
166 24 1.598448 6.590277 5.647851 1 1 1.200
167 24 4.947640 9.515142 12.408283 1 1 1.200
168 24 0.241485 8.553369 4.480707 1 1 1.200
169 24 1.239512 9.391036 11.831472 1 1 1.200
170 24 1.045732 11.730508 6.465875 1 1 1.200
171 24 11.399636 3.106894 15.095626 1 1 1.200
172 24 5.821720 7.620809 13.382390 1 1 1.200
173 24 3.750167 5.390479 14.531304 1 1 1.200
174 24 12.110791 0.471353 13.743509 1 1 1.200
175 24 6.160464 1.639880 -7.299495 1 1 1.200
176 24 11.600550 5.770690 13.626732 1 1 1.200
177 24 1.202315 7.176154 12.392738 1 1 1.200
178 24 3.637652 7.858582 13.208902 1 1 1.200
179 24 14.127145 -0.404307 13.179657 1 1 1.200
180 24 4.921197 -1.527457 11.719662 1 1 1.200
181 24 15.722429 0.063304 12.017356 1 1 1.200
182 24 5.252288 1.569451 -4.202573 1 1 1.200
183 24 3.018237 1.897749 -4.975040 1 1 1.200
184 24 -0.368535 2.529631 9.985078 1 1 1.200
185 24 -1.007359 7.144758 7.136019 1 1 1.200
186 24 8.753433 14.739688 11.606596 1 1 1.200
187 24 14.077938 1.873097 14.041456 1 1 1.200
188 24 2.903689 1.020153 10.189350 1 1 1.200
189 24 5.681901 3.487498 13.589794 1 1 1.200
190 24 13.073836 1.221605 12.035840 1 1 1.200
191 24 15.385842 1.739853 10.832527 1 1 1.200
192 24 16.204755 2.030139 12.692745 1 1 1.200
193 24 14.564536 -4.710048 2.093542 1 1 1.200
194 24 10.336411 -2.690175 1.658594 1 1 1.200
195 24 7.374104 -2.682693 -3.516737 1 1 1.200
196 24 12.909127 -6.017828 1.796573 1 1 1.200
197 24 6.024623 -3.820044 -0.779384 1 1 1.200
198 24 11.588556 -3.284148 8.175364 1 1 1.200
199 24 3.406300 -1.139260 -1.628499 1 1 1.200
200 24 8.472117 -6.591379 3.760529 1 1 1.200
201 24 8.838045 -2.346402 6.889826 1 1 1.200
202 24 8.539387 -5.791404 -0.474403 1 1 1.200
203 24 13.976996 -2.680759 1.724423 1 1 1.200
204 24 11.126579 -0.855261 5.194773 1 1 1.200
205 24 7.212083 -4.354705 7.769510 1 1 1.200
206 24 4.298802 1.241813 4.100900 1 1 1.200
207 24 9.488956 -1.879885 -3.951937 1 1 1.200
208 24 4.122174 -4.328103 5.547973 1 1 1.200
209 24 4.610713 -1.329799 0.497759 1 1 1.200
210 24 3.647593 0.671030 -0.112583 1 1 1.200
211 24 7.783632 0.407035 5.925093 1 1 1.200
212 24 9.699306 -0.135056 6.872711 1 1 1.200
213 24 9.493795 -4.750028 7.432905 1 1 1.200
214 24 2.774474 -3.143079 1.034963 1 1 1.200
215 24 7.317938 -4.436013 1.482633 1 1 1.200
216 24 20.796940 -0.619328 4.063181 1 1 1.200
217 24 10.142139 -6.171407 5.180600 1 1 1.200
218 24 7.681212 -5.697810 6.004120 1 1 1.200
219 24 5.834196 -2.698988 1.465033 1 1 1.200
220 24 11.102565 -1.046767 2.738883 1 1 1.200
221 24 20.707723 2.063982 7.715871 1 1 1.200
222 24 3.650077 -4.601364 3.274016 1 1 1.200
223 24 11.780929 -1.149296 7.398802 1 1 1.200
224 24 6.513248 -1.484587 6.283806 1 1 1.200
225 24 9.767733 -3.860483 -3.132916 1 1 1.200
226 24 12.338783 -1.867218 0.670203 1 1 1.200
227 24 7.922171 -2.404661 0.508540 1 1 1.200
228 24 2.354678 -1.012723 0.406298 1 1 1.200
229 24 8.732192 -2.788466 -1.408888 1 1 1.200
230 24 20.439333 -0.970485 6.751811 1 1 1.200
231 24 5.750337 -5.687469 4.818443 1 1 1.200
232 24 13.194865 -2.064783 5.849945 1 1 1.200
233 24 4.633668 -0.627181 3.035338 1 1 1.200
234 24 5.719426 0.624953 5.830201 1 1 1.200
235 24 3.307910 -2.449363 6.579495 1 1 1.200
236 24 7.632797 -0.465349 7.958221 1 1 1.200
237 24 11.958173 -4.212799 1.050501 1 1 1.200
238 24 4.813708 -2.052747 4.911229 1 1 1.200
239 24 11.709142 -4.742659 4.613577 1 1 1.200
240 24 11.288386 -6.511519 3.227817 1 1 1.200
241 24 8.735811 -0.460468 2.200719 1 1 1.200
242 24 12.247271 -3.585119 3.028615 1 1 1.200
243 24 9.142575 -3.259241 8.938483 1 1 1.200
244 24 19.508982 0.723942 8.311014 1 1 1.200
245 24 21.525385 1.362182 5.523916 1 1 1.200
246 24 6.255574 -5.582480 0.094363 1 1 1.200
247 24 5.063309 0.984709 1.670721 1 1 1.200
248 24 7.863302 -0.812058 -2.673325 1 1 1.200
249 24 5.273883 -0.854282 -2.758664 1 1 1.200
250 24 13.401821 -4.183095 5.994855 1 1 1.200
251 24 11.595859 -5.083226 6.742774 1 1 1.200
252 24 5.875732 -5.907514 2.584829 1 1 1.200
253 24 6.731960 0.632480 3.703257 1 1 1.200
254 24 10.445622 -6.411739 1.116823 1 1 1.200
255 24 11.047773 -2.891560 6.115614 1 1 1.200
256 24 9.906841 -1.375220 8.621335 1 1 1.200
257 24 8.043660 -2.301871 4.971357 1 1 1.200
258 24 6.699016 -0.334907 1.422356 1 1 1.200
259 24 6.392211 -3.733871 5.883758 1 1 1.200
260 24 9.063051 -0.422145 4.347629 1 1 1.200
261 24 10.479435 -1.473302 -1.941337 1 1 1.200
262 24 6.393085 -1.732527 -1.065814 1 1 1.200
263 24 5.297460 -2.946030 -2.631833 1 1 1.200
264 24 3.886677 -0.359014 5.969957 1 1 1.200
265 24 5.591670 0.345669 -0.942003 1 1 1.200
266 24 2.869225 0.616689 2.208158 1 1 1.200
267 24 11.080510 -3.195346 -0.818863 1 1 1.200
268 24 5.086471 -1.411950 7.766457 1 1 1.200
269 24 5.713403 -3.678227 3.533354 1 1 1.200
270 24 13.039954 -1.745372 3.790967 1 1 1.200
271 24 10.286098 -2.657643 4.034460 1 1 1.200
272 24 6.972930 -2.447914 8.680550 1 1 1.200
273 24 2.492170 -2.770525 4.470065 1 1 1.200
274 24 7.616892 -4.482881 -2.063712 1 1 1.200
275 24 9.251707 -4.164305 5.347893 1 1 1.200
276 24 2.546865 -0.463514 4.347476 1 1 1.200
277 24 8.208049 -6.454687 1.712781 1 1 1.200
278 24 3.917147 -3.235792 -0.819043 1 1 1.200
279 24 9.921964 -4.832172 2.826420 1 1 1.200
280 24 12.667420 -4.312386 -2.087538 1 1 1.200
281 24 9.995798 -1.127124 0.214157 1 1 1.200
282 24 5.046455 -3.666083 7.615480 1 1 1.200
283 24 7.670716 -4.664745 3.840837 1 1 1.200
284 24 13.242700 -2.474265 -1.324116 1 1 1.200
285 24 4.465909 -4.644802 1.114113 1 1 1.200
286 24 6.618251 -1.429347 3.611031 1 1 1.200
287 24 3.870361 -2.526442 2.678246 1 1 1.200
288 24 10.371622 -5.186913 -1.533922 1 1 1.200
289 24 7.927999 -0.322761 -0.400799 1 1 1.200
290 24 12.200729 -5.729742 -0.343806 1 1 1.200
291 24 14.079315 -4.211449 -0.135280 1 1 1.200
292 24 1.927329 -1.487434 2.543202 1 1 1.200
293 24 9.485191 -4.297491 0.532987 1 1 1.200
294 24 11.729001 -2.698651 -3.321714 1 1 1.200
295 24 14.507138 -3.424989 4.057134 1 1 1.200
296 24 13.573145 -5.555428 4.064700 1 1 1.200
297 24 1.943080 5.954554 13.803550 1 1 1.200
298 24 7.725355 -1.377317 12.329756 1 1 1.200
299 24 9.630723 11.364739 12.631750 1 1 1.200
300 24 13.304024 -0.161442 10.699698 1 1 1.200
301 24 7.629601 12.217999 12.259869 1 1 1.200
302 24 1.789863 6.297949 10.096770 1 1 1.200
303 24 8.258979 -2.784858 2.684665 1 1 1.200
304 24 5.795839 8.819638 15.100491 1 1 1.200
305 24 -0.803170 4.486801 4.622416 1 1 1.200
306 24 4.469199 6.328510 9.636209 1 2 1.100
307 24 6.757427 5.651782 11.718844 1 2 1.100
308 24 3.230516 3.815295 9.750809 1 2 1.100
309 24 5.421089 3.722717 11.701268 1 2 1.100
310 24 1.821931 13.472963 7.301526 1 2 1.100
311 24 1.915401 -0.648478 10.379098 1 2 1.100
312 24 5.682709 2.799210 15.365542 1 2 1.100
313 24 0.079066 6.749160 3.704846 1 2 1.100
314 24 15.407211 -1.801104 10.299169 1 2 1.100
315 24 3.903951 9.902899 14.427967 1 2 1.100
316 24 0.453332 3.700426 3.340716 1 2 1.100
317 24 11.856714 8.822954 13.591011 1 2 1.100
318 24 14.580812 7.789540 13.871083 1 2 1.100
319 24 11.040979 4.759939 16.196704 1 2 1.100
320 24 4.275501 2.680618 -6.549683 1 2 1.100
321 24 1.463380 3.337922 -2.465384 1 2 1.100
322 24 9.648808 0.867357 13.720107 1 2 1.100
323 24 4.980330 12.863367 12.558346 1 2 1.100
324 24 1.029160 2.740802 12.754743 1 2 1.100
325 24 3.176717 0.713915 13.439934 1 2 1.100
326 24 5.982592 -0.426853 13.723031 1 2 1.100
327 24 9.978978 0.515822 11.327900 1 2 1.100
328 24 1.681940 9.170730 8.369648 1 2 1.100
329 24 -0.194422 7.623115 10.045094 1 2 1.100
330 24 -0.852998 4.915482 9.735928 1 2 1.100
331 24 -0.182951 9.010589 6.747052 1 2 1.100
332 24 8.660204 10.971573 14.679378 1 2 1.100
333 24 20.659916 0.125692 -2.665335 1 2 1.100
334 24 15.794935 0.011056 -7.653204 1 2 1.100
335 24 5.679478 6.269001 -9.459472 1 2 1.100
336 24 16.985540 -2.725530 -0.292707 1 2 1.100
337 24 10.637458 2.805507 -10.274324 1 2 1.100
338 24 17.690267 -3.513975 2.157628 1 2 1.100
339 24 18.797010 -1.951888 3.027624 1 2 1.100
340 24 18.531771 -1.922350 0.979240 1 2 1.100
341 24 6.520602 11.954424 14.120820 1 2 1.100
342 24 8.737466 13.253645 13.860767 1 2 1.100
343 24 20.428275 -1.271757 -0.723319 1 2 1.100
344 24 14.593106 -1.806378 -6.318660 1 2 1.100
345 24 9.587910 11.897369 6.387241 1 2 1.100
346 24 7.276292 3.504913 -2.306931 1 2 1.100
347 24 11.549917 13.283289 -6.100593 1 2 1.100
348 24 12.598966 6.104298 -6.018583 1 2 1.100
349 24 19.005884 9.503872 -3.470265 1 2 1.100
350 24 12.764040 10.940397 1.364576 1 2 1.100
351 24 14.162958 14.619083 -3.886510 1 2 1.100
352 24 8.814124 10.932806 -7.024836 1 2 1.100
353 24 10.475959 10.664200 -2.835054 1 2 1.100
354 24 12.512008 3.772666 3.508388 1 2 1.100
355 24 4.364303 9.376685 -2.960218 1 2 1.100
356 24 13.943835 1.396833 0.258382 1 2 1.100
357 24 15.454455 1.579792 1.846423 1 2 1.100
358 24 8.895724 8.085724 3.801377 1 2 1.100
359 24 16.647150 14.704239 4.805033 1 2 1.100
360 24 8.094555 7.437003 -0.187444 1 2 1.100
361 24 16.201902 7.934433 -4.137568 1 2 1.100
362 24 3.623956 7.139130 0.117877 1 2 1.100
363 24 8.269430 6.377312 7.351895 1 2 1.100
364 24 15.914600 11.767251 -2.649244 1 2 1.100
365 24 6.136983 14.173106 5.239047 1 2 1.100
366 24 7.168432 8.986710 1.773224 1 2 1.100
367 24 10.671866 14.509374 -1.051357 1 2 1.100
368 24 16.264570 5.004307 0.307319 1 2 1.100
369 24 5.184188 10.248295 -0.314306 1 2 1.100
370 24 3.557703 9.096262 -0.976667 1 2 1.100
371 24 8.695889 11.813285 1.104704 1 2 1.100
372 24 13.868458 13.232522 -5.567856 1 2 1.100
373 24 16.315236 12.521954 3.062517 1 2 1.100
374 24 10.415993 4.739418 4.931339 1 2 1.100
375 24 11.038122 13.110918 -3.125186 1 2 1.100
376 24 11.240351 14.327083 8.308680 1 2 1.100
377 24 4.560182 5.418990 1.558724 1 2 1.100
378 24 5.237775 14.547023 1.768124 1 2 1.100
379 24 14.106366 7.666488 2.028107 1 2 1.100
380 24 11.651108 12.562700 7.254960 1 2 1.100
381 24 6.293958 10.671140 -2.399557 1 2 1.100
382 24 10.874589 2.380461 -5.305777 1 2 1.100
383 24 13.472156 9.790099 -0.756365 1 2 1.100
384 24 12.757727 4.208992 8.242012 1 2 1.100
385 24 13.095333 3.289914 -6.703402 1 2 1.100
386 24 9.197419 9.944361 5.620085 1 2 1.100
387 24 11.554094 10.340948 7.560457 1 2 1.100
388 24 3.998431 7.156231 -2.398816 1 2 1.100
389 24 15.992800 13.463208 -4.027283 1 2 1.100
390 24 8.983814 9.740778 8.016718 1 2 1.100
391 24 5.352473 4.719727 -2.635162 1 2 1.100
392 24 9.261004 10.073018 -5.062179 1 2 1.100
393 24 12.739043 14.539269 0.198709 1 2 1.100
394 24 15.878382 11.401348 6.083822 1 2 1.100
395 24 16.796280 1.356976 0.098282 1 2 1.100
396 24 12.612996 6.934151 7.201233 1 2 1.100
397 24 14.033720 5.929066 9.127542 1 2 1.100
398 24 14.893785 9.979392 7.877462 1 2 1.100
399 24 9.006586 3.911190 -5.709182 1 2 1.100
400 24 17.110065 7.364341 -6.131065 1 2 1.100
401 24 13.847199 7.772209 -2.826906 1 2 1.100
402 24 19.650282 7.368849 6.013190 1 2 1.100
403 24 9.996103 8.842783 1.889062 1 2 1.100
404 24 16.960015 10.711817 1.710941 1 2 1.100
405 24 12.282400 9.532644 -3.681778 1 2 1.100
406 24 17.780476 5.167816 2.458273 1 2 1.100
407 24 11.821245 15.929447 6.324125 1 2 1.100
408 24 10.355445 7.365560 -5.734765 1 2 1.100
409 24 12.346788 6.153077 -1.437908 1 2 1.100
410 24 15.867819 5.355488 -3.905018 1 2 1.100
411 24 8.779230 4.279848 6.319771 1 2 1.100
412 24 8.810048 14.141535 0.340962 1 2 1.100
413 24 19.944598 3.829990 -0.639054 1 2 1.100
414 24 9.810778 14.621597 -4.434139 1 2 1.100
415 24 10.524476 9.489677 4.048899 1 2 1.100
416 24 4.621133 5.315866 -0.772412 1 2 1.100
417 24 5.041887 6.079718 3.964260 1 2 1.100
418 24 12.531544 8.299738 -6.319491 1 2 1.100
419 24 9.206630 13.504228 7.820152 1 2 1.100
420 24 10.733084 17.019760 2.780673 1 2 1.100
421 24 6.103333 4.492385 2.854313 1 2 1.100
422 24 17.684871 11.168998 4.143226 1 2 1.100
423 24 18.620368 6.297943 7.675483 1 2 1.100
424 24 15.333506 11.021825 -0.743378 1 2 1.100
425 24 16.127286 7.221535 4.484304 1 2 1.100
426 24 13.584292 1.794010 2.944562 1 2 1.100
427 24 12.666193 13.777627 -1.965192 1 2 1.100
428 24 13.010082 11.508568 -7.013030 1 2 1.100
429 24 18.834973 11.942160 1.492986 1 2 1.100
430 24 8.632478 13.770994 4.892180 1 2 1.100
431 24 18.148099 9.027031 0.662315 1 2 1.100
432 24 15.247718 1.788237 -3.978381 1 2 1.100
433 24 14.333697 11.228526 9.856276 1 2 1.100
434 24 4.906716 13.030594 -0.166365 1 2 1.100
435 24 8.709799 6.472268 5.234873 1 2 1.100
436 24 8.067162 5.575295 3.153579 1 2 1.100
437 24 15.486792 3.215609 -5.793571 1 2 1.100
438 24 7.577219 9.671794 -3.867021 1 2 1.100
439 24 14.419889 9.854518 -2.671495 1 2 1.100
440 24 14.307606 8.087443 9.791660 1 2 1.100
441 24 15.597434 4.147141 7.997347 1 2 1.100
442 24 11.077579 4.054412 -2.975354 1 2 1.100
443 24 12.134278 1.833097 -0.941833 1 2 1.100
444 24 11.287581 4.897386 -4.890143 1 2 1.100
445 24 9.187980 5.105828 -2.083858 1 2 1.100
446 24 7.787397 3.845787 1.493910 1 2 1.100
447 24 14.435500 3.646962 2.030212 1 2 1.100
448 24 9.693417 7.499105 8.733790 1 2 1.100
449 24 15.286910 0.986081 -1.511768 1 2 1.100
450 24 15.063649 9.428744 0.966893 1 2 1.100
451 24 13.841143 12.393929 -3.388223 1 2 1.100
452 24 11.018155 3.901849 -6.780975 1 2 1.100
453 24 10.734017 13.842056 5.654008 1 2 1.100
454 24 7.308232 11.607998 -5.569849 1 2 1.100
455 24 7.228926 13.060226 -0.675750 1 2 1.100
456 24 11.926628 5.561627 -7.866458 1 2 1.100
457 24 8.311541 7.466008 -2.534662 1 2 1.100
458 24 19.849783 9.924064 5.008657 1 2 1.100
459 24 9.735802 11.603672 8.708997 1 2 1.100
460 24 10.926199 10.186370 -0.396766 1 2 1.100
461 24 15.538698 10.329218 -4.414268 1 2 1.100
462 24 3.864279 7.308312 2.590708 1 2 1.100
463 24 15.913481 2.826205 6.117489 1 2 1.100
464 24 18.131294 2.662833 -0.744462 1 2 1.100
465 24 15.260672 3.086961 -0.540557 1 2 1.100
466 24 13.139033 3.527521 -1.822083 1 2 1.100
467 24 14.302334 5.616702 6.964640 1 2 1.100
468 24 9.944176 12.068603 -1.119294 1 2 1.100
469 24 15.960459 5.302306 5.815612 1 2 1.100
470 24 14.761724 8.135891 6.122035 1 2 1.100
471 24 17.535555 6.637970 -0.607192 1 2 1.100
472 24 9.536516 15.399611 6.818600 1 2 1.100
473 24 9.421550 11.851731 4.008314 1 2 1.100
474 24 8.562088 11.809845 -3.503648 1 2 1.100
475 24 18.890036 8.971556 7.307039 1 2 1.100
476 24 7.197364 9.375465 -6.411748 1 2 1.100
477 24 8.362619 16.501772 3.469787 1 2 1.100
478 24 16.111077 5.275919 -6.545380 1 2 1.100
479 24 5.520523 9.928713 -4.751519 1 2 1.100
480 24 10.901890 2.774303 4.246932 1 2 1.100
481 24 12.596466 16.769650 4.128070 1 2 1.100
482 24 8.259638 10.433696 2.929347 1 2 1.100
483 24 7.775592 8.484104 5.685613 1 2 1.100
484 24 19.792490 10.042375 -1.475411 1 2 1.100
485 24 7.057061 12.607531 3.635634 1 2 1.100
486 24 5.918421 9.721479 6.564488 1 2 1.100
487 24 15.216966 11.633547 -6.133769 1 2 1.100
488 24 7.209244 4.167425 -4.365609 1 2 1.100
489 24 12.377544 6.277826 0.724808 1 2 1.100
490 24 6.768927 5.099515 5.158094 1 2 1.100
491 24 10.545758 7.103508 0.667788 1 2 1.100
492 24 13.654823 13.267375 9.003736 1 2 1.100
493 24 13.232758 13.016816 5.776323 1 2 1.100
494 24 17.523703 10.677517 -0.720743 1 2 1.100
495 24 12.399718 4.943538 5.816283 1 2 1.100
496 24 9.687238 3.332682 2.441147 1 2 1.100
497 24 16.023139 9.451749 -6.608681 1 2 1.100
498 24 17.711900 4.360785 6.963217 1 2 1.100
499 24 20.355715 4.570826 1.674104 1 2 1.100
500 24 8.859934 9.659335 0.277804 1 2 1.100
501 24 20.067260 10.468092 0.710328 1 2 1.100
502 24 5.700836 11.203605 2.694470 1 2 1.100
503 24 16.149131 14.772158 -1.983713 1 2 1.100
504 24 10.116946 2.403602 -1.960455 1 2 1.100
505 24 12.378367 8.637783 5.473218 1 2 1.100
506 24 17.139432 7.107427 6.467046 1 2 1.100
507 24 20.615489 6.208699 0.046748 1 2 1.100
508 24 16.489214 15.128501 0.241046 1 2 1.100
509 24 11.638635 9.521606 -8.041735 1 2 1.100
510 24 15.558062 1.691116 4.257316 1 2 1.100
511 24 20.522454 9.390212 2.441960 1 2 1.100
512 24 6.089217 8.090347 -3.152357 1 2 1.100
513 24 9.489700 5.680477 -6.959359 1 2 1.100
514 24 13.369995 2.226543 5.109300 1 2 1.100
515 24 17.744824 3.048805 4.917491 1 2 1.100
516 24 13.210661 12.200289 -0.395153 1 2 1.100
517 24 11.884210 8.514459 -1.651013 1 2 1.100
518 24 13.205160 7.513869 -8.142570 1 2 1.100
519 24 16.580473 15.005845 2.468636 1 2 1.100
520 24 18.175540 13.844413 0.519581 1 2 1.100
521 24 4.174788 12.744435 2.048718 1 2 1.100
522 24 10.417459 8.495323 6.710286 1 2 1.100
523 24 14.872807 13.315126 -1.261764 1 2 1.100
524 24 14.525957 16.134781 -0.085927 1 2 1.100
525 24 14.660844 6.839514 -5.166200 1 2 1.100
526 24 16.880841 3.333657 1.340939 1 2 1.100
527 24 6.484457 6.262417 1.263757 1 2 1.100
528 24 14.857410 15.963893 3.984552 1 2 1.100
529 24 15.344552 7.529565 8.052744 1 2 1.100
530 24 6.820828 9.032090 -0.973469 1 2 1.100
531 24 13.778689 11.737159 7.422643 1 2 1.100
532 24 11.074488 7.042176 4.872623 1 2 1.100
533 24 10.691085 7.362876 -8.020544 1 2 1.100
534 24 10.400491 4.423793 7.795280 1 2 1.100
535 24 11.367330 4.481632 1.589214 1 2 1.100
536 24 13.220119 1.711450 -5.169883 1 2 1.100
537 24 15.377192 13.169418 5.162921 1 2 1.100
538 24 14.147458 8.970419 -5.147426 1 2 1.100
539 24 6.609322 7.477834 3.469388 1 2 1.100
540 24 11.193366 9.738345 -5.767637 1 2 1.100
541 24 11.490258 5.861811 9.013428 1 2 1.100
542 24 5.968163 13.409022 -2.323524 1 2 1.100
543 24 18.622633 7.119590 1.498831 1 2 1.100
544 24 10.799913 6.356124 -3.013437 1 2 1.100
545 24 6.663332 9.795803 4.282566 1 2 1.100
546 24 17.730935 5.308446 -5.249071 1 2 1.100
547 24 19.273360 3.636775 3.414348 1 2 1.100
548 24 18.510621 9.431250 2.844570 1 2 1.100
549 24 13.442803 5.539267 -3.263770 1 2 1.100
550 24 16.127158 3.752597 3.507086 1 2 1.100
551 24 18.326601 8.297426 -1.502068 1 2 1.100
552 24 12.991447 3.353370 -3.965063 1 2 1.100
553 24 3.442361 10.712784 2.975052 1 2 1.100
554 24 12.587281 15.206772 2.455534 1 2 1.100
555 24 19.112836 12.126059 -0.768447 1 2 1.100
556 24 17.972989 8.790899 5.020577 1 2 1.100
557 24 10.246129 2.701034 0.354219 1 2 1.100
558 24 10.829281 11.482880 -7.195357 1 2 1.100
559 24 8.967912 9.501946 -1.986616 1 2 1.100
560 24 16.028674 9.956061 4.480030 1 2 1.100
561 24 19.533967 5.202227 5.559256 1 2 1.100
562 24 13.185021 14.715067 7.508193 1 2 1.100
563 24 10.100092 7.513439 -1.240781 1 2 1.100
564 24 9.087741 16.751631 1.385317 1 2 1.100
565 24 17.097982 11.744086 -4.769615 1 2 1.100
566 24 8.382636 3.761703 4.161738 1 2 1.100
567 24 20.731343 7.202920 1.968331 1 2 1.100
568 24 9.716724 15.897415 -2.560096 1 2 1.100
569 24 13.580223 1.183207 -2.653470 1 2 1.100
570 24 18.529564 5.019939 0.439336 1 2 1.100
571 24 14.381017 4.210251 4.729281 1 2 1.100
572 24 14.528125 16.359970 1.991366 1 2 1.100
573 24 4.534523 10.718147 4.816888 1 2 1.100
574 24 12.559331 13.053472 2.133646 1 2 1.100
575 24 19.595120 5.688568 -1.674638 1 2 1.100
576 24 7.084337 15.922348 1.396746 1 2 1.100
577 24 16.964413 2.010633 -2.497242 1 2 1.100
578 24 8.468479 3.306282 -0.658375 1 2 1.100
579 24 13.134902 11.106673 -4.895502 1 2 1.100
580 24 4.455672 11.613202 -1.865129 1 2 1.100
581 24 10.497383 6.345667 6.909196 1 2 1.100
582 24 6.260056 15.283779 3.504186 1 2 1.100
583 24 7.840270 15.681941 5.443461 1 2 1.100
584 24 6.606080 11.027887 0.831058 1 2 1.100
585 24 15.937570 9.561600 9.698901 1 2 1.100
586 24 20.429597 7.888761 4.139266 1 2 1.100
587 24 5.782789 7.125016 -1.139247 1 2 1.100
588 24 12.393184 16.507143 -0.933350 1 2 1.100
589 24 8.081426 7.344010 -6.983626 1 2 1.100
590 24 10.614373 9.475955 9.395622 1 2 1.100
591 24 3.661392 11.244775 0.601409 1 2 1.100
592 24 11.554230 1.606925 -3.489370 1 2 1.100
593 24 7.463989 8.513778 7.786030 1 2 1.100
594 24 8.295133 16.065250 -0.677340 1 2 1.100
595 24 3.230790 9.153402 1.339173 1 2 1.100
596 24 18.660568 7.544840 -4.456258 1 2 1.100
597 24 20.095245 7.615625 -2.376094 1 2 1.100
598 24 11.159005 12.667882 0.352184 1 2 1.100
599 24 11.564939 12.435820 3.933959 1 2 1.100
600 24 16.101123 8.706830 -0.697838 1 2 1.100
601 24 18.217350 13.592825 2.800023 1 2 1.100
602 24 12.522681 10.050037 3.379936 1 2 1.100
603 24 18.170831 13.033263 4.929391 1 2 1.100
604 24 14.029689 9.697834 -7.463995 1 2 1.100
605 24 9.113109 2.903933 -3.766698 1 2 1.100
606 24 15.663509 7.087617 -2.089829 1 2 1.100
607 24 12.578654 14.599600 4.555634 1 2 1.100
608 24 4.688862 8.388534 4.866188 1 2 1.100
609 24 9.394409 8.954345 -7.520425 1 2 1.100
610 24 8.967783 13.588720 -2.286811 1 2 1.100
611 24 14.039700 7.540186 -0.428120 1 2 1.100
612 24 17.411317 8.102597 8.838582 1 2 1.100
613 24 15.538484 5.824561 3.001299 1 2 1.100
614 24 16.585528 12.600295 0.357085 1 2 1.100
615 24 19.677625 11.557136 3.374936 1 2 1.100
616 24 20.388753 8.329174 -0.057022 1 2 1.100
617 24 13.871575 11.912284 3.939685 1 2 1.100
618 24 12.259906 7.312517 -4.234364 1 2 1.100
619 24 12.358559 17.008204 1.269979 1 2 1.100
620 24 7.527198 15.056464 -2.497148 1 2 1.100
621 24 11.595877 10.939405 5.480525 1 2 1.100
622 24 18.576945 11.109168 6.329804 1 2 1.100
623 24 17.538678 13.248397 -1.896419 1 2 1.100
624 24 14.205014 8.480093 3.960455 1 2 1.100
625 24 12.051158 7.769365 9.435539 1 2 1.100
626 24 6.805597 13.132371 1.556709 1 2 1.100
627 24 9.255006 5.247720 0.547086 1 2 1.100
628 24 12.405067 11.316033 -2.168390 1 2 1.100
629 24 14.321910 15.467650 5.891275 1 2 1.100
630 24 6.132465 4.039483 0.051498 1 2 1.100
631 24 16.829657 9.490544 -2.683483 1 2 1.100
632 24 11.932341 11.888015 9.397785 1 2 1.100
633 24 17.685720 9.553606 -5.192586 1 2 1.100
634 24 10.654850 15.081208 1.244187 1 2 1.100
635 24 15.355213 14.007207 7.275825 1 2 1.100
636 24 5.858796 7.815384 -5.414297 1 2 1.100
637 24 9.192738 5.683064 -4.410186 1 2 1.100
638 24 7.045078 5.832081 -5.700713 1 2 1.100
639 24 8.552621 7.063710 1.852846 1 2 1.100
640 24 17.696157 5.285501 4.641368 1 2 1.100
641 24 5.648094 12.080758 6.065430 1 2 1.100
642 24 19.226233 5.424337 -3.721227 1 2 1.100
643 24 11.829806 15.801403 -2.939195 1 2 1.100
644 24 4.951721 9.110175 2.842994 1 2 1.100
645 24 9.998760 13.130093 2.269873 1 2 1.100
646 24 13.890062 2.954037 6.993389 1 2 1.100
647 24 17.222709 12.849157 6.898064 1 2 1.100
648 24 15.196475 3.572721 -2.834645 1 2 1.100
649 24 12.088634 14.525853 -4.574952 1 2 1.100
650 24 11.892983 7.750385 2.937635 1 2 1.100
651 24 13.856793 10.371634 5.619672 1 2 1.100
652 24 13.050224 8.933698 7.709573 1 2 1.100
653 24 14.378488 5.558815 0.984492 1 2 1.100
654 24 10.399250 14.822215 3.606857 1 2 1.100
655 24 16.241466 7.126213 1.119310 1 2 1.100
656 24 4.706608 13.088738 4.035599 1 2 1.100
657 24 7.097539 5.974909 -3.237516 1 2 1.100
658 24 13.680273 6.516154 4.861898 1 2 1.100
659 24 7.682861 13.692875 -4.301236 1 2 1.100
660 24 14.807664 10.338239 2.840549 1 2 1.100
661 24 17.583025 1.902313 2.849606 1 2 1.100
662 24 7.349093 5.508589 -0.914607 1 2 1.100
663 24 5.415519 8.213196 0.845533 1 2 1.100
664 24 14.758671 14.076460 1.013810 1 2 1.100
665 24 5.012475 6.271047 -4.184967 1 2 1.100
666 24 15.868942 12.183005 8.601975 1 2 1.100
667 24 11.014286 4.561798 -0.773352 1 2 1.100
668 24 6.234426 7.094725 5.934020 1 2 1.100
669 24 16.657517 9.371697 6.685566 1 2 1.100
670 24 20.317277 5.671669 3.555769 1 2 1.100
671 24 10.943994 11.772332 -4.690460 1 2 1.100
672 24 10.413040 16.796501 -0.359025 1 2 1.100
673 24 13.093576 3.774328 0.250323 1 2 1.100
674 24 9.255209 12.926354 -5.780774 1 2 1.100
675 24 5.992405 12.061658 -3.931373 1 2 1.100
676 24 14.092874 4.627049 -5.208105 1 2 1.100
677 24 14.510163 13.938558 3.209302 1 2 1.100
678 24 16.592331 5.935533 8.690089 1 2 1.100
679 24 7.373737 13.525102 6.882801 1 2 1.100
680 24 17.449621 10.622445 8.319185 1 2 1.100
681 24 16.552724 8.449731 2.695454 1 2 1.100
682 24 11.498995 3.067757 6.499693 1 2 1.100
683 24 8.244789 7.754187 -4.843407 1 2 1.100
684 24 18.321785 11.526557 -2.971718 1 2 1.100
685 24 10.201661 8.456884 -3.712498 1 2 1.100
686 24 18.381332 7.072844 3.671280 1 2 1.100
687 24 14.642934 5.343805 -1.321577 1 2 1.100
688 24 17.527893 6.425682 -2.892331 1 2 1.100
689 24 11.985558 2.218178 1.595612 1 2 1.100
690 24 14.769515 11.985005 1.427036 1 2 1.100
691 24 18.710408 3.569694 -2.773800 1 2 1.100
692 24 14.094583 15.598184 -2.084682 1 2 1.100
693 24 13.055161 5.714960 3.020980 1 2 1.100
694 24 10.615317 10.927539 2.029172 1 2 1.100
695 24 7.543414 11.458354 5.454879 1 2 1.100
696 24 12.832635 9.847285 9.891499 1 2 1.100
697 24 14.205752 5.203221 -7.502256 1 2 1.100
698 24 7.895446 11.275770 -1.214356 1 2 1.100
699 24 17.209954 3.356638 -4.416815 1 2 1.100
700 24 8.267308 14.403252 2.676235 1 2 1.100
701 24 16.993081 4.491766 -1.768236 1 2 1.100
702 24 6.214793 14.964275 -0.417069 1 2 1.100
703 24 19.070713 2.595279 1.299559 1 2 1.100
704 24 10.167287 16.522308 4.946907 1 2 1.100
705 24 7.391253 11.194698 7.696311 1 2 1.100
706 24 15.194171 7.427811 -7.284163 1 2 1.100
707 24 18.445337 -2.842190 -2.511244 1 2 1.100
708 24 7.102549 3.719830 -9.752351 1 5 1.700
709 24 17.918329 -1.286465 -4.621313 1 6 1.700
710 24 5.365568 4.387580 9.686339 1 7 1.800
711 24 10.566694 5.940989 3.075203 1 4 2.800
712 29 -16.553921 -18.186436 3.850512 2 1 1.200
713 29 -11.205378 -14.465089 4.984328 2 1 1.200
714 29 -13.831108 -19.842747 -5.534557 2 1 1.200
715 29 -15.972918 -22.440135 2.947478 2 1 1.200
716 29 -9.078644 -15.584522 0.631551 2 1 1.200
717 29 -7.829722 -20.684163 0.714591 2 1 1.200
718 29 -15.572248 -16.193986 0.197735 2 1 1.200
719 29 -7.066942 -15.776339 1.030382 2 1 1.200
720 29 -8.779988 -14.143882 -0.505398 2 1 1.200
721 29 -15.848765 -17.251702 -4.463844 2 1 1.200
722 29 -13.641549 -23.731431 0.163456 2 1 1.200
723 29 -10.866993 -16.289104 -3.171195 2 1 1.200
724 29 -11.248276 -18.368096 7.360651 2 1 1.200
725 29 -14.200968 -19.638477 -3.234690 2 1 1.200
726 29 -12.764351 -22.393190 2.529139 2 1 1.200
727 29 -17.136564 -18.790292 6.015321 2 1 1.200
728 29 -18.650113 -18.518750 3.765690 2 1 1.200
729 29 -17.557962 -16.750859 2.937086 2 1 1.200
730 29 -16.820635 -16.732295 5.288009 2 1 1.200
731 29 -17.820092 -19.554401 2.088942 2 1 1.200
732 29 -17.272229 -20.222111 4.422036 2 1 1.200
733 29 -9.762070 -13.616807 5.952779 2 1 1.200
734 29 -7.807064 -18.663025 0.246527 2 2 1.100
735 29 -8.498558 -17.507057 2.890341 2 2 1.100
736 29 -9.627122 -21.473623 -3.016175 2 2 1.100
737 29 -14.260891 -17.156427 2.244328 2 2 1.100
738 29 -7.323330 -18.465682 -1.654129 2 2 1.100
739 29 -14.028624 -15.418343 4.461125 2 2 1.100
740 29 -10.629270 -13.710217 3.026133 2 2 1.100
741 29 -10.495302 -16.651821 3.907317 2 2 1.100
742 29 -11.932803 -16.783010 0.472353 2 2 1.100
743 29 -14.325466 -15.011783 2.149886 2 2 1.100
744 29 -11.261374 -14.094341 0.988257 2 2 1.100
745 29 -11.614167 -23.509854 -0.144539 2 2 1.100
746 29 -14.536932 -24.001342 2.145683 2 2 1.100
747 29 -9.205588 -21.973075 -1.102971 2 2 1.100
748 29 -10.299218 -17.899390 1.943415 2 2 1.100
749 29 -16.239649 -18.186327 -2.607005 2 2 1.100
750 29 -12.256079 -24.624364 1.892454 2 2 1.100
751 29 -14.808480 -21.436974 -4.344687 2 2 1.100
752 29 -11.228938 -21.317414 3.562915 2 2 1.100
753 29 -10.049218 -18.041602 5.791284 2 2 1.100
754 29 -8.298123 -19.092734 7.358533 2 2 1.100
755 29 -10.586966 -16.768182 -4.938207 2 2 1.100
756 29 -12.756685 -15.941536 8.729969 2 2 1.100
757 29 -9.808397 -14.760039 -2.983972 2 2 1.100
758 29 -8.855271 -17.370106 8.552264 2 2 1.100
759 29 -12.023701 -14.592774 -2.523613 2 2 1.100
760 29 -9.304970 -15.896038 7.179311 2 2 1.100
761 29 -9.626664 -20.285499 8.365433 2 2 1.100
762 29 -9.001701 -17.375400 -1.976787 2 2 1.100
763 29 -8.452685 -15.435663 3.980169 2 2 1.100
764 29 -16.558814 -17.974258 0.420146 2 2 1.100
765 29 -17.851681 -16.486051 0.189507 2 2 1.100
766 29 -13.966061 -16.339623 7.036538 2 2 1.100
767 29 -15.123403 -22.264272 4.853123 2 2 1.100
768 29 -12.402497 -18.500424 -3.866032 2 2 1.100
769 29 -14.884157 -20.789997 1.791478 2 2 1.100
770 29 -12.578835 -22.233071 -3.429789 2 2 1.100
771 29 -13.045144 -22.517515 5.135509 2 2 1.100
772 29 -17.352307 -19.688903 -1.788675 2 2 1.100
773 29 -13.855048 -20.765562 3.613178 2 2 1.100
774 29 -6.899494 -20.621641 2.355885 2 2 1.100
775 29 -16.388644 -21.348114 -2.550449 2 2 1.100
776 29 -9.390483 -22.348687 3.257415 2 2 1.100
777 29 -11.344314 -23.617706 4.813817 2 2 1.100
778 29 -11.144281 -21.544224 7.394686 2 2 1.100
779 29 -13.732924 -18.391633 -1.513678 2 2 1.100
780 29 -11.991290 -20.492767 -4.626920 2 2 1.100
781 29 -10.832658 -21.437126 1.434837 2 2 1.100
782 29 -14.138782 -16.960968 -3.210083 2 2 1.100
783 29 -13.696238 -24.114983 4.064917 2 2 1.100
784 29 -14.409856 -22.250108 -2.302620 2 2 1.100
785 29 -15.610480 -22.586449 0.814632 2 2 1.100
786 29 -10.569965 -19.054512 -0.662901 2 2 1.100
787 29 -9.490151 -15.070766 2.384232 2 2 1.100
788 29 -16.794265 -15.809477 -1.583478 2 2 1.100
789 29 -7.578614 -20.795038 -1.589333 2 2 1.100
790 29 -12.768784 -14.171029 3.152978 2 2 1.100
791 29 -9.242766 -19.291342 -3.756016 2 2 1.100
792 29 -12.825172 -14.968366 0.394907 2 2 1.100
793 29 -13.240103 -20.952437 7.469737 2 2 1.100
794 29 -14.909787 -14.816732 -1.240110 2 2 1.100
795 29 -12.580931 -20.459968 -2.062052 2 2 1.100
796 29 -12.953490 -21.441554 0.670188 2 2 1.100
797 29 -12.352533 -15.189155 -4.543433 2 2 1.100
798 29 -10.623271 -16.047136 9.061500 2 2 1.100
799 29 -15.221948 -20.153294 -1.124766 2 2 1.100
800 29 -16.317347 -19.483006 -4.379247 2 2 1.100
801 29 -9.983466 -23.546246 1.179045 2 2 1.100
802 29 -13.983762 -17.776696 -5.421053 2 2 1.100
803 29 -10.575559 -24.126190 3.077621 2 2 1.100
804 29 -11.674446 -20.208236 9.136515 2 2 1.100
805 29 -11.579766 -16.030967 6.955400 2 2 1.100
806 29 -11.544381 -19.790099 5.755615 2 2 1.100
807 29 -9.364777 -20.929793 6.202562 2 2 1.100
808 29 -13.659008 -19.545924 8.964327 2 2 1.100
809 29 -10.332694 -18.435713 9.615731 2 2 1.100
810 29 -14.533410 -17.761679 8.451403 2 2 1.100
811 29 -14.486719 -19.389059 6.815579 2 2 1.100
812 29 -12.384437 -17.810850 9.672221 2 2 1.100
813 29 -12.984878 -18.089108 6.280064 2 2 1.100
814 29 -8.448929 -19.382973 5.127341 2 2 1.100
815 29 -7.883168 -17.289569 6.172618 2 2 1.100
816 29 -13.168071 -17.557459 3.936120 2 2 1.100
817 29 -9.400532 -19.477780 -1.776908 2 3 2.400
818 29 -11.960494 -16.331675 2.756995 2 3 2.400
819 29 -12.352161 -18.769427 1.969798 2 4 2.800
820 28 0.795660 -21.141594 7.030178 3 1 1.200
821 28 3.539598 -25.581859 4.112896 3 1 1.200
822 28 1.308710 -24.464140 8.947734 3 1 1.200
823 28 3.297467 -24.040493 5.134680 3 1 1.200
824 28 -0.521053 -26.012593 9.747469 3 1 1.200
825 28 -1.929002 -22.706133 9.276946 3 1 1.200
826 28 3.318658 -23.165096 3.564299 3 1 1.200
827 28 -0.982701 -24.802966 8.174074 3 1 1.200
828 28 0.163150 -25.098875 3.243052 3 1 1.200
829 28 2.184636 -22.219034 5.853756 3 8 2.000
830 28 0.848560 -27.137318 5.223656 3 2 1.100
831 28 -1.924163 -24.370187 4.201185 3 2 1.100
832 28 -1.661252 -27.036787 4.312590 3 2 1.100
833 28 3.709541 -25.398886 6.461373 3 2 1.100
834 28 -2.723802 -24.796727 9.353836 3 2 1.100
835 28 -1.609271 -26.787943 7.562326 3 2 1.100
836 28 1.169927 -26.248508 2.472437 3 2 1.100
837 28 -0.324979 -23.706783 10.218414 3 2 1.100
838 28 -1.794771 -22.941877 7.060609 3 2 1.100
839 28 0.245873 -21.064045 8.804752 3 2 1.100
840 28 -0.749491 -20.515546 6.361943 3 2 1.100
841 28 0.902041 -26.403101 7.880387 3 2 1.100
842 28 1.135617 -21.460859 4.412748 3 2 1.100
843 28 3.078036 -22.806131 7.382392 3 2 1.100
844 28 -2.844873 -24.902881 6.936843 3 2 1.100
845 28 0.226110 -23.461499 2.549924 3 2 1.100
846 28 -0.693335 -25.715879 5.116604 3 3 2.400
847 28 0.337398 -24.196326 6.324142 3 4 2.800
848 30 6.273930 -19.803962 -14.877771 4 1 1.200
849 30 -0.244914 -11.578604 -15.753413 4 1 1.200
850 30 -1.605812 -18.663249 -13.893363 4 1 1.200
851 30 -1.701848 -16.077541 -13.019571 4 1 1.200
852 30 10.546004 -11.312651 -13.310119 4 1 1.200
853 30 2.609715 -19.559897 -9.065129 4 1 1.200
854 30 7.140633 -12.195090 -11.338517 4 1 1.200
855 30 3.459152 -18.368050 -7.451460 4 1 1.200
856 30 -0.559674 -16.588522 -7.212055 4 1 1.200
857 30 1.442310 -10.755595 -10.525780 4 1 1.200
858 30 0.582274 -15.798804 -9.902659 4 1 1.200
859 30 -0.329404 -11.392534 -11.114478 4 1 1.200
860 30 -3.078512 -14.766314 -11.916892 4 1 1.200
861 30 1.497711 -18.078845 -9.998854 4 1 1.200
862 30 -1.171084 -15.058910 -8.710299 4 1 1.200
863 30 -0.301617 -16.968170 -17.519841 4 1 1.200
864 30 10.571844 -16.489029 -17.470139 4 1 1.200
865 30 6.566581 -21.358427 -10.220422 4 1 1.200
866 30 9.347523 -17.188731 -6.576472 4 1 1.200
867 30 4.489745 -17.289991 -8.780838 4 1 1.200
868 30 2.531726 -20.654800 -7.077761 4 1 1.200
869 30 3.347484 -14.301980 -19.891243 4 1 1.200
870 30 0.803307 -13.127352 -11.106886 4 1 1.200
871 30 11.385472 -15.114479 -15.752492 4 1 1.200
872 30 5.157125 -17.678641 -6.169524 4 1 1.200
873 30 1.774510 -14.636559 -8.446008 4 1 1.200
874 30 -1.848322 -17.881679 -8.829468 4 1 1.200
875 30 -1.378680 -12.712203 -10.185481 4 1 1.200
876 30 2.876354 -15.950382 -9.610210 4 1 1.200
877 30 3.517117 -19.320207 -5.624007 4 1 1.200
878 30 1.568195 -17.486601 -8.141860 4 1 1.200
879 30 6.750241 -21.513428 -6.795837 4 1 1.200
880 30 1.092863 -21.115657 -9.491838 4 1 1.200
881 30 7.145091 -22.641181 -12.988145 4 1 1.200
882 30 1.832721 -19.106036 -17.284624 4 1 1.200
883 30 4.157723 -21.317655 -15.322476 4 1 1.200
884 30 7.135972 -14.285349 -17.618405 4 1 1.200
885 30 -3.343802 -18.082830 -14.713013 4 1 1.200
886 30 -2.781263 -19.895303 -13.040018 4 1 1.200
887 30 10.365320 -17.372852 -10.124673 4 1 1.200
888 30 -3.729795 -15.980435 -13.455369 4 1 1.200
889 30 0.229441 -14.449028 -7.145860 4 1 1.200
890 30 -2.169698 -16.059644 -17.916797 4 1 1.200
891 30 -1.451295 -16.544845 -10.174517 4 1 1.200
892 30 4.393217 -18.812986 -14.502386 4 2 1.100
893 30 1.395000 -17.137119 -16.061433 4 2 1.100
894 30 3.195897 -19.238362 -12.137408 4 2 1.100
895 30 3.733022 -19.750770 -16.559422 4 2 1.100
896 30 -0.205795 -20.806180 -13.673589 4 2 1.100
897 30 1.322330 -20.809679 -12.210326 4 2 1.100
898 30 3.206542 -16.987385 -12.010801 4 2 1.100
899 30 5.263038 -17.964588 -12.785158 4 2 1.100
900 30 3.210890 -20.739445 -13.511513 4 2 1.100
901 30 1.117476 -12.146583 -9.101353 4 2 1.100
902 30 1.609062 -20.510377 -15.636291 4 2 1.100
903 30 0.596632 -17.124930 -12.697516 4 2 1.100
904 30 1.163764 -18.599711 -5.997651 4 2 1.100
905 30 5.411254 -13.684122 -18.534325 4 2 1.100
906 30 9.505878 -14.205830 -11.963946 4 2 1.100
907 30 8.191867 -10.064826 -11.388018 4 2 1.100
908 30 6.702579 -12.381123 -15.752132 4 2 1.100
909 30 6.208720 -14.469989 -9.884474 4 2 1.100
910 30 9.558334 -18.334439 -8.434491 4 2 1.100
911 30 8.564492 -16.414821 -8.349816 4 2 1.100
912 30 -3.273807 -12.560717 -14.916937 4 2 1.100
913 30 5.836398 -13.548425 -12.277977 4 2 1.100
914 30 8.784392 -21.087696 -7.708584 4 2 1.100
915 30 0.039310 -15.542344 -19.262929 4 2 1.100
916 30 3.658584 -23.100021 -10.270260 4 2 1.100
917 30 8.086044 -20.068835 -9.514864 4 2 1.100
918 30 4.912199 -10.376777 -18.733131 4 2 1.100
919 30 6.271850 -9.773378 -16.934066 4 2 1.100
920 30 9.428925 -15.577043 -19.126586 4 2 1.100
921 30 4.783287 -15.885543 -17.901915 4 2 1.100
922 30 9.339584 -13.427152 -19.266592 4 2 1.100
923 30 5.359218 -14.956877 -15.935951 4 2 1.100
924 30 8.316059 -15.997136 -17.108493 4 2 1.100
925 30 9.362085 -14.662157 -14.976402 4 2 1.100
926 30 3.489107 -14.138252 -17.597637 4 2 1.100
927 30 5.560737 -18.054506 -18.578719 4 2 1.100
928 30 10.910673 -14.143327 -17.789319 4 2 1.100
929 30 8.749302 -11.426081 -18.963698 4 2 1.100
930 30 6.867652 -12.069207 -17.851437 4 2 1.100
931 30 7.205672 -14.549763 -15.033320 4 2 1.100
932 30 8.705874 -11.610806 -9.558655 4 2 1.100
933 30 6.327154 -16.790552 -16.606234 4 2 1.100
934 30 9.987739 -16.823276 -15.312811 4 2 1.100
935 30 7.894172 -19.818176 -11.899307 4 2 1.100
936 30 6.182196 -9.578731 -11.462851 4 2 1.100
937 30 11.288519 -18.434156 -7.588579 4 2 1.100
938 30 -0.024672 -16.581133 -14.697443 4 2 1.100
939 30 6.062191 -23.589188 -10.424139 4 2 1.100
940 30 8.209619 -20.750114 -15.396390 4 2 1.100
941 30 6.518119 -13.546724 -7.949293 4 2 1.100
942 30 7.166641 -9.108412 -13.739895 4 2 1.100
943 30 11.248631 -12.986294 -12.216133 4 2 1.100
944 30 10.106285 -11.164225 -11.267507 4 2 1.100
945 30 9.309609 -18.189326 -16.733452 4 2 1.100
946 30 5.438852 -14.777082 -20.614851 4 2 1.100
947 30 6.346388 -16.735196 -19.838970 4 2 1.100
948 30 8.315194 -10.058036 -17.232817 4 2 1.100
949 30 -0.525039 -18.565040 -10.422856 4 2 1.100
950 30 4.872492 -23.061181 -12.232554 4 2 1.100
951 30 -0.373599 -18.675970 -7.631356 4 2 1.100
952 30 8.561105 -12.508047 -12.879904 4 2 1.100
953 30 2.269780 -9.400243 -17.048947 4 2 1.100
954 30 0.647685 -12.159341 -13.791709 4 2 1.100
955 30 0.842015 -10.181145 -18.609828 4 2 1.100
956 30 0.221809 -8.980768 -16.769326 4 2 1.100
957 30 0.968764 -9.760209 -13.481946 4 2 1.100
958 30 1.882870 -8.754026 -15.099352 4 2 1.100
959 30 -2.512348 -12.071010 -17.229589 4 2 1.100
960 30 -1.121514 -13.412889 -14.439560 4 2 1.100
961 30 1.970511 -11.071121 -15.162282 4 2 1.100
962 30 -1.316440 -10.354706 -17.477825 4 2 1.100
963 30 -2.230392 -11.981724 -13.194201 4 2 1.100
964 30 -0.664482 -9.141234 -14.971609 4 2 1.100
965 30 -1.204457 -10.197069 -13.278968 4 2 1.100
966 30 1.288692 -11.842063 -17.395686 4 2 1.100
967 30 0.598840 -13.492192 -16.058141 4 2 1.100
968 30 -0.225535 -12.087769 -19.012140 4 2 1.100
969 30 -0.865368 -13.412761 -17.706444 4 2 1.100
970 30 -2.402802 -10.561125 -15.296997 4 2 1.100
971 30 0.811201 -19.005411 -13.534423 4 2 1.100
972 30 -2.409434 -13.990516 -16.150424 4 2 1.100
973 30 4.826638 -11.375243 -16.817722 4 2 1.100
974 30 2.910180 -17.169551 -5.316333 4 2 1.100
975 30 8.958015 -9.990633 -13.471365 4 2 1.100
976 30 6.699591 -11.188722 -9.355669 4 2 1.100
977 30 1.672188 -21.911229 -14.198263 4 2 1.100
978 30 -0.843338 -20.240401 -9.551491 4 2 1.100
979 30 11.368794 -19.382658 -12.115317 4 2 1.100
980 30 6.111155 -21.001078 -12.225893 4 2 1.100
981 30 2.075991 -19.971634 -18.838471 4 2 1.100
982 30 2.381665 -15.620723 -14.864491 4 2 1.100
983 30 -0.068887 -19.306751 -15.647674 4 2 1.100
984 30 10.741355 -15.779260 -7.811567 4 2 1.100
985 30 4.002434 -16.436349 -19.664507 4 2 1.100
986 30 10.973699 -12.939926 -15.765294 4 2 1.100
987 30 5.041870 -22.889081 -8.330496 4 2 1.100
988 30 12.706482 -17.884485 -10.812265 4 2 1.100
989 30 11.654516 -15.336834 -9.778469 4 2 1.100
990 30 0.576192 -20.434370 -7.557038 4 2 1.100
991 30 4.509868 -21.240506 -10.303817 4 2 1.100
992 30 8.679629 -17.251586 -10.811588 4 2 1.100
993 30 2.530036 -14.477667 -6.438168 4 2 1.100
994 30 5.449050 -22.311414 -16.197135 4 2 1.100
995 30 11.449628 -19.460116 -9.764950 4 2 1.100
996 30 8.769924 -11.659649 -15.924541 4 2 1.100
997 30 6.770806 -10.694280 -19.477104 4 2 1.100
998 30 9.131707 -21.368894 -12.539462 4 2 1.100
999 30 9.534854 -21.597786 -10.094776 4 2 1.100
1000 30 0.192301 -17.657856 -19.275314 4 2 1.100
1001 30 3.750953 -12.219347 -19.133503 4 2 1.100
1002 30 4.638960 -10.737009 -10.106797 4 2 1.100
1003 30 1.219452 -16.227123 -6.006530 4 2 1.100
1004 30 3.890221 -15.531757 -7.734555 4 2 1.100
1005 30 6.260328 -19.078438 -9.907766 4 2 1.100
1006 30 8.186900 -22.897040 -11.066453 4 2 1.100
1007 30 12.149704 -17.219910 -12.829722 4 2 1.100
1008 30 4.457523 -15.792935 -5.862130 4 2 1.100
1009 30 7.562140 -15.123754 -19.979416 4 2 1.100
1010 30 12.454412 -16.991930 -8.841481 4 2 1.100
1011 30 5.418608 -20.835724 -8.119635 4 2 1.100
1012 30 8.453535 -13.257135 -8.063016 4 2 1.100
1013 30 4.102754 -9.943346 -11.908471 4 2 1.100
1014 30 5.155137 -9.494826 -13.696436 4 2 1.100
1015 30 8.334947 -14.008627 -9.969492 4 2 1.100
1016 30 4.350081 -11.968975 -12.571085 4 2 1.100
1017 30 6.506792 -11.289559 -13.252360 4 2 1.100
1018 30 1.792923 -15.219024 -12.951435 4 2 1.100
1019 30 10.316058 -11.679782 -17.440314 4 2 1.100
1020 30 5.283207 -12.419018 -20.489346 4 2 1.100
1021 30 4.566648 -13.093248 -15.760128 4 2 1.100
1022 30 10.178536 -17.734902 -12.369499 4 2 1.100
1023 30 7.778731 -16.785847 -14.909151 4 2 1.100
1024 30 8.945099 -13.631926 -16.862880 4 2 1.100
1025 30 7.343290 -18.531508 -17.446867 4 2 1.100
1026 30 7.367917 -13.033668 -20.249694 4 2 1.100
1027 30 7.590708 -22.761743 -8.671742 4 2 1.100
1028 30 -1.968004 -18.155219 -17.314947 4 2 1.100
1029 30 8.269817 -17.445226 -18.972185 4 2 1.100
1030 30 7.120157 -19.425989 -7.269503 4 2 1.100
1031 30 12.560135 -15.665615 -11.540248 4 2 1.100
1032 30 4.989112 -12.205607 -8.589168 4 2 1.100
1033 30 7.421513 -14.923315 -11.768494 4 2 1.100
1034 30 10.389593 -12.927703 -9.956186 4 2 1.100
1035 30 3.331877 -17.650999 -15.993587 4 2 1.100
1036 30 4.527252 -12.958656 -10.577943 4 2 1.100
1037 30 2.579368 -17.867144 -13.865452 4 3 2.400
1038 30 4.544204 -15.763013 -13.117034 4 4 2.800
1039 21 -12.813676 0.500805 8.734266 5 9 1.800
1040 21 -23.075422 2.157064 0.580238 5 9 1.800
1041 21 -13.763614 0.765944 0.992175 5 9 1.800
1042 21 -11.991767 -3.558934 6.138322 5 9 1.800
1043 21 -11.663702 -0.599600 4.924889 5 9 1.800
1044 21 -18.413862 1.833655 9.846878 5 9 1.800
1045 21 -21.169181 0.206869 -0.771237 5 9 1.800
1046 21 -15.208346 4.064582 6.555172 5 9 1.800
1047 21 -15.627426 -0.387073 10.574682 5 9 1.800
1048 21 -15.976430 -0.740654 -0.193043 5 9 1.800
1049 21 -24.052525 1.008838 5.083742 5 9 1.800
1050 21 -23.891114 -1.372445 -3.588277 5 10 2.200
1051 21 -12.949274 -2.382808 -0.058430 5 10 2.200
1052 21 -26.894586 -3.478369 4.319762 5 10 2.200
1053 21 -21.865268 0.864997 9.211744 5 10 2.200
1054 21 -26.213394 1.877377 4.784611 5 10 2.200
1055 21 -16.099940 1.272830 12.831797 5 10 2.200
1056 21 -16.994256 -6.173228 12.615401 5 10 2.200
1057 21 -18.971086 -5.047599 -1.192223 5 10 2.200
1058 21 -16.357558 -0.724574 5.850893 5 10 2.200
1059 21 -18.976866 -3.290978 10.715454 5 10 2.200
1060 21 -24.533760 3.678544 3.376642 5 10 2.200
1061 21 -20.354370 -4.018445 -1.955698 5 10 2.200
1062 21 -25.442704 -2.908075 3.346839 5 10 2.200
1063 21 -20.306651 -2.305547 13.130186 5 10 2.200
1064 21 -24.804757 3.432117 0.638122 5 10 2.200
1065 21 -18.887336 -6.161665 8.535678 5 10 2.200
1066 21 -25.716052 0.591436 7.538390 5 10 2.200
1067 21 -22.686306 -2.755212 9.022947 5 10 2.200
1068 21 -21.853447 5.434743 7.912159 5 10 2.200
1069 21 -26.118163 1.402735 2.355436 5 10 2.200
1070 21 -19.159494 -3.898769 -3.344110 5 10 2.200
1071 21 -20.954902 -8.237287 2.441886 5 10 2.200
1072 21 -17.122776 -4.800193 10.274826 5 10 2.200
1073 21 -23.286274 0.359988 11.031286 5 10 2.200
1074 21 -20.592043 2.949316 11.349586 5 10 2.200
1075 21 -24.314040 -2.533550 1.887209 5 10 2.200
1076 21 -19.437936 -0.714280 -4.831904 5 10 2.200
1077 21 -13.630257 -2.468410 12.374411 5 10 2.200
1078 21 -15.012781 0.349985 5.684672 5 10 2.200
1079 21 -18.341148 -0.767494 -2.643282 5 10 2.200
1080 21 -14.155726 -6.667908 5.170072 5 10 2.200
1081 21 -22.235690 -6.779358 2.038309 5 10 2.200
1082 21 -17.018030 -6.100920 -4.411431 5 10 2.200
1083 21 -15.466927 -6.928101 -2.360504 5 10 2.200
1084 21 -20.901802 -6.593535 0.553934 5 10 2.200
1085 21 -17.279161 -4.399054 2.891180 5 10 2.200
1086 21 -23.223422 -8.142932 0.815667 5 10 2.200
1087 21 -20.893952 -6.338602 3.593454 5 10 2.200
1088 21 -23.747803 -7.690996 2.952904 5 10 2.200
1089 21 -20.092973 -9.670012 5.465185 5 10 2.200
1090 21 -14.000591 -1.726401 3.975681 5 10 2.200
1091 21 -16.112323 -5.029034 -0.665792 5 10 2.200
1092 21 -20.501742 -9.914196 1.142798 5 10 2.200
1093 21 -16.548642 -1.621878 -4.255185 5 10 2.200
1094 21 -24.454003 -2.718724 4.920855 5 10 2.200
1095 21 -18.229619 -8.234554 4.428239 5 10 2.200
1096 21 -24.681021 -1.467144 9.817647 5 10 2.200
1097 21 -15.827330 -1.349811 13.332404 5 10 2.200
1098 21 -23.692559 -5.059391 10.298864 5 10 2.200
1099 21 -24.100287 -7.069280 8.176288 5 10 2.200
1100 21 -12.793270 -5.372752 10.088753 5 10 2.200
1101 21 -15.623009 -8.202858 8.250355 5 10 2.200
1102 21 -18.839684 -4.857237 9.806139 5 10 2.200
1103 21 -22.113938 -8.798078 -1.304204 5 10 2.200
1104 21 -18.030591 -3.428458 13.493064 5 10 2.200
1105 21 -21.203280 3.555862 -0.514057 5 10 2.200
1106 21 -26.180714 -1.212787 3.055918 5 10 2.200
1107 21 -21.623955 -8.725429 5.688510 5 10 2.200
1108 21 -20.711568 -7.774495 -3.506475 5 10 2.200
1109 21 -23.388554 -1.489571 -0.834604 5 10 2.200
1110 21 -19.484875 -3.208712 -5.850125 5 10 2.200
1111 21 -22.515713 -9.649807 4.370105 5 10 2.200
1112 21 -23.269728 -8.321269 6.309113 5 10 2.200
1113 21 -22.813778 -5.254675 3.224789 5 10 2.200
1114 21 -21.865817 -3.692774 -0.881556 5 10 2.200
1115 21 -21.054237 -2.197737 2.245413 5 10 2.200
1116 21 -15.490185 0.679219 3.958598 5 10 2.200
1117 21 -20.646289 -2.213848 -2.323539 5 10 2.200
1118 21 -17.987601 1.572516 -1.333596 5 10 2.200
1119 21 -24.961026 -4.499793 8.326885 5 10 2.200
1120 21 -21.770748 -0.043843 2.741319 5 10 2.200
1121 21 -18.063471 1.149768 5.952686 5 10 2.200
1122 21 -22.227760 5.046300 2.542530 5 10 2.200
1123 21 -21.296801 -5.501306 -2.443274 5 10 2.200
1124 21 -15.125251 -6.988201 6.858141 5 10 2.200
1125 21 -21.128459 -1.100869 10.487529 5 10 2.200
1126 21 -20.566308 -7.295205 6.210216 5 10 2.200
1127 21 -23.031571 5.003947 5.099149 5 10 2.200
1128 21 -23.481380 -7.005833 -2.524708 5 10 2.200
1129 21 -26.282757 -4.264445 0.342590 5 10 2.200
1130 21 -14.601109 -6.301986 11.411381 5 10 2.200
1131 21 -24.721363 3.561845 6.453207 5 10 2.200
1132 21 -19.489285 -6.098119 12.518059 5 10 2.200
1133 21 -18.815568 0.087124 2.049843 5 10 2.200
1134 21 -23.071675 -5.380700 0.837068 5 10 2.200
1135 21 -21.824895 -1.357453 4.870002 5 10 2.200
1136 21 -17.089997 -6.668492 6.663056 5 10 2.200
1137 21 -15.115060 -5.881283 8.453642 5 10 2.200
1138 21 -21.192907 -8.968416 8.546324 5 10 2.200
1139 21 -13.207284 -6.500173 7.290746 5 10 2.200
1140 21 -25.471813 -7.261566 4.551951 5 10 2.200
1141 21 -25.660979 -4.719367 2.870173 5 10 2.200
1142 21 -20.613466 -5.004741 9.831161 5 10 2.200
1143 21 -15.883644 -8.207060 5.516619 5 10 2.200
1144 21 -19.225633 -4.053740 2.065352 5 10 2.200
1145 21 -17.379323 -7.646160 -0.173781 5 10 2.200
1146 21 -14.931099 -7.206890 0.238898 5 10 2.200
1147 21 -16.330102 3.369248 11.312503 5 10 2.200
1148 21 -13.285045 -5.071496 -0.801141 5 10 2.200
1149 21 -22.411834 3.113907 7.212709 5 10 2.200
1150 21 -12.481979 -1.724738 10.330068 5 10 2.200
1151 21 -23.490082 -0.819775 7.707838 5 10 2.200
1152 21 -13.757471 0.883858 11.620330 5 10 2.200
1153 21 -18.261752 -5.697786 1.972433 5 10 2.200
1154 21 -22.857055 -0.826815 9.548473 5 10 2.200
1155 21 -16.238510 1.264141 6.776554 5 10 2.200
1156 21 -15.263741 -0.459311 -2.206247 5 10 2.200
1157 21 -16.836173 -7.945955 10.549325 5 10 2.200
1158 21 -18.307026 5.391869 6.849240 5 10 2.200
1159 21 -16.917656 -3.839099 -5.385712 5 10 2.200
1160 21 -23.987330 -4.027778 -3.446486 5 10 2.200
1161 21 -22.794707 -2.593792 12.076229 5 10 2.200
1162 21 -21.625197 -4.843693 12.170750 5 10 2.200
1163 21 -20.321132 1.626475 -2.656095 5 10 2.200
1164 21 -15.620917 -7.563774 2.750988 5 10 2.200
1165 21 -14.403424 3.129646 9.655155 5 10 2.200
1166 21 -20.813848 0.570450 12.583262 5 10 2.200
1167 21 -21.890758 0.045266 -4.002382 5 10 2.200
1168 21 -25.766727 -5.520833 6.184642 5 10 2.200
1169 21 -19.856845 4.511550 8.859205 5 10 2.200
1170 21 -18.507945 -9.095087 7.829063 5 10 2.200
1171 21 -19.381940 -8.246776 10.490761 5 10 2.200
1172 21 -19.496321 -6.021419 -5.209037 5 10 2.200
1173 21 -16.630927 -3.508978 -2.494242 5 10 2.200
1174 21 -26.021801 -2.588161 7.398645 5 10 2.200
1175 21 -23.160796 -4.803636 5.956628 5 10 2.200
1176 21 -15.578454 -4.001162 13.002903 5 10 2.200
1177 21 -22.057549 -7.311305 10.230928 5 10 2.200
1178 21 -18.062237 -1.032133 11.392184 5 10 2.200
1179 21 -22.092025 -5.121251 -4.918654 5 10 2.200
1180 21 -26.624359 -0.755540 5.607671 5 10 2.200
1181 21 -20.535393 5.928386 5.681046 5 10 2.200
1182 21 -21.772879 -5.502857 7.653981 5 10 2.200
1183 21 -14.771711 -3.521288 10.467147 5 10 2.200
1184 21 -18.404143 -0.366165 13.665288 5 10 2.200
1185 21 -18.428040 4.788118 10.640289 5 10 2.200
1186 21 -16.677718 4.848633 8.724776 5 10 2.200
1187 21 -11.996650 -3.659509 8.634616 5 10 2.200
1188 21 -18.082453 -7.673841 -2.889982 5 10 2.200
1189 21 -17.942734 -8.764979 2.071222 5 10 2.200
1190 21 -13.968406 -2.846799 -2.278763 5 10 2.200
1191 21 -18.572501 2.194989 12.559925 5 10 2.200
1192 21 -23.232157 1.788003 -2.257436 5 10 2.200
1193 21 -24.382605 2.326807 8.917288 5 10 2.200
1194 21 -25.159926 0.434909 0.495257 5 10 2.200
1195 21 -21.385144 -0.369769 0.996611 5 11 2.200
1196 21 -17.225762 1.429922 8.426190 5 11 2.200
1197 21 -13.463528 -2.375555 5.929661 5 11 2.200
1198 21 -13.732855 0.155848 2.798585 5 11 2.200
1199 21 -16.005617 0.449396 1.857038 5 11 2.200
1200 21 -15.840792 0.011118 8.718101 5 11 2.200
1201 21 -22.034532 2.059526 1.993392 5 11 2.200
1202 21 -15.557861 2.867149 5.178861 5 11 2.200
1203 21 -22.427725 0.874710 4.609958 5 11 2.200
1204 21 -12.785966 0.706132 5.710821 5 11 2.200
1205 21 -14.025636 -0.669573 7.862487 5 11 2.200
1206 21 -17.216082 -2.776507 1.417597 5 12 2.000
1207 21 -14.754500 -4.412941 2.283677 5 12 2.000
1208 21 -17.467583 -3.951061 4.987089 5 12 2.000
1209 21 -20.107010 -1.799349 7.944640 5 12 2.000
1210 21 -20.178926 -3.187140 5.701083 5 12 2.000
1211 21 -18.217787 4.459181 2.784441 5 12 2.000
1212 21 -18.554757 -1.320598 0.457022 5 12 2.000
1213 21 -18.415002 -2.992542 6.487438 5 12 2.000
1214 21 -20.120108 3.767186 4.824031 5 12 2.000
1215 21 -16.242697 -2.666219 3.056872 5 13 2.200
1216 21 -18.116424 -1.501752 3.740317 5 13 2.200
1217 21 -18.363453 2.610449 2.085378 5 13 2.200
1218 21 -19.973750 1.834563 6.927623 5 13 2.200
1219 21 -15.490701 -3.078547 6.838245 5 13 2.200
1220 21 -18.730102 -1.139252 5.887870 5 13 2.200
1221 21 -19.016365 2.019628 4.180021 5 13 2.200
1222 21 -15.380761 -3.162318 4.918047 5 14 2.400
1223 21 -16.172114 -2.131825 8.035815 5 14 2.400
1224 21 -20.440695 0.260588 5.667548 5 14 2.400
1225 21 -20.230624 2.914534 2.345459 5 14 2.400
1226 21 -15.146522 -1.590761 2.171572 5 14 2.400
1227 21 -17.378549 1.602267 4.031084 5 14 2.400
1228 21 -17.381476 -0.255631 3.409850 5 14 2.400
1229 21 -20.081235 -0.908531 3.273160 5 14 2.400
1230 21 -17.873944 -0.442614 7.587598 5 14 2.400
1231 21 -19.396912 -2.411293 4.439342 5 4 2.800
1232 21 -21.928418 -2.437679 -5.068074 5 15 1.300
1233 21 -25.218159 0.234417 -1.884376 5 15 1.300
1234 21 -25.373894 -2.764368 -1.634374 5 15 1.300
1235 21 -12.033138 -5.370924 4.221456 5 15 1.300
1236 21 -11.947245 -3.813756 1.831812 5 15 1.300
1237 21 -22.339844 3.643212 9.987923 5 15 1.300
1238 21 -19.439292 -8.614840 -1.036564 5 15 1.300
1239 21 -25.661549 -6.965902 1.034498 5 15 1.300
1240 21 -13.094202 -6.360016 1.835369 5 15 1.300
1241 21 -26.691892 -1.524817 0.426454 5 15 1.300
1242 21 -14.583642 -4.803991 -3.624470 5 15 1.300
1243 21 -24.838912 -5.469283 -1.350355 5 15 1.300
1244 26 -10.541226 7.249993 -5.995378 6 1 1.200
1245 26 -18.158821 17.036050 -7.641953 6 1 1.200
1246 26 -7.880616 9.392630 -11.664311 6 1 1.200
1247 26 -11.670283 8.475305 -11.118537 6 1 1.200
1248 26 -18.881600 13.477920 -1.881397 6 1 1.200
1249 26 -18.904519 14.508826 -3.431917 6 1 1.200
1250 26 -9.226967 19.736300 -6.468992 6 1 1.200
1251 26 -13.724101 14.306315 -10.304717 6 1 1.200
1252 26 -14.113919 19.182319 -3.065240 6 1 1.200
1253 26 -14.234968 13.525406 -12.303856 6 1 1.200
1254 26 -8.522905 7.049297 -5.327074 6 1 1.200
1255 26 -15.587265 10.089767 -9.911999 6 1 1.200
1256 26 -9.403598 8.379951 -8.505288 6 1 1.200
1257 26 -14.625964 18.795347 -8.424276 6 1 1.200
1258 26 -16.755144 8.925515 -11.152680 6 1 1.200
1259 26 -7.671621 11.478103 -0.273867 6 1 1.200
1260 26 -10.012768 17.940596 1.357159 6 1 1.200
1261 26 -18.835391 11.948942 -9.662650 6 1 1.200
1262 26 -13.603850 12.236016 -9.627393 6 1 1.200
1263 26 -12.352732 16.045843 -7.829859 6 1 1.200
1264 26 -13.240395 13.467642 2.293801 6 1 1.200
1265 26 -4.901628 13.431490 -7.575063 6 1 1.200
1266 26 -12.636020 8.004338 -9.204298 6 1 1.200
1267 26 -16.897083 10.101533 -12.755256 6 1 1.200
1268 26 -7.622083 20.641665 -4.614916 6 1 1.200
1269 26 -15.208924 12.744927 -14.020343 6 1 1.200
1270 26 -14.249886 9.883417 -11.266249 6 1 1.200
1271 26 -18.111647 10.721260 -11.151931 6 1 1.200
1272 26 -11.235767 10.011605 -9.609140 6 1 1.200
1273 26 -15.178695 18.023296 -0.917519 6 1 1.200
1274 26 -17.678644 15.143879 -11.439085 6 1 1.200
1275 26 -7.418641 14.385422 1.274328 6 1 1.200
1276 26 -7.548663 10.777598 -8.414054 6 1 1.200
1277 26 -16.436034 15.685423 -0.715249 6 1 1.200
1278 26 -16.032801 15.244586 -9.861737 6 1 1.200
1279 26 -14.465029 12.029782 -4.743797 6 1 1.200
1280 26 -12.971946 19.996548 -9.485271 6 1 1.200
1281 26 -7.865324 19.702853 -12.141981 6 1 1.200
1282 26 -12.438398 16.376419 -14.433709 6 1 1.200
1283 26 -14.471493 16.934922 1.303855 6 1 1.200
1284 26 -17.942391 14.101262 -9.532090 6 1 1.200
1285 26 -4.216750 15.310428 -12.483741 6 1 1.200
1286 26 -12.210576 11.712903 -16.537362 6 1 1.200
1287 26 -9.156277 12.496100 -13.611472 6 1 1.200
1288 26 -8.831833 13.088434 0.466431 6 1 1.200
1289 26 -13.832697 21.786661 -9.530100 6 1 1.200
1290 26 -15.367568 13.603637 -8.829112 6 1 1.200
1291 26 -5.433340 12.469852 -10.638667 6 1 1.200
1292 26 -17.756819 18.071915 -9.029977 6 1 1.200
1293 26 -5.879885 9.059155 -10.089354 6 1 1.200
1294 26 -15.330486 11.369103 -8.551363 6 1 1.200
1295 26 -7.893656 7.639797 -7.344962 6 1 1.200
1296 26 -12.035620 8.152608 -3.038777 6 1 1.200
1297 26 -11.865476 12.530670 3.411153 6 1 1.200
1298 26 -15.307631 20.680476 -7.981108 6 1 1.200
1299 26 -15.044442 8.753173 -12.975122 6 1 1.200
1300 26 -16.627085 14.142828 -13.178293 6 1 1.200
1301 26 -9.349302 10.914623 -6.807016 6 1 1.200
1302 26 -5.676630 14.996634 -4.144288 6 1 1.200
1303 26 -19.007994 13.005883 -5.312474 6 1 1.200
1304 26 -8.587557 9.395754 -5.147009 6 1 1.200
1305 26 -13.071323 16.194529 -5.854335 6 1 1.200
1306 26 -11.685031 12.414244 -14.738765 6 1 1.200
1307 26 -15.099230 6.449007 -8.668606 6 1 1.200
1308 26 -15.624761 12.293020 -11.056434 6 1 1.200
1309 26 -17.319292 12.138722 -13.068547 6 1 1.200
1310 26 -12.760805 12.241730 -11.544001 6 1 1.200
1311 26 -8.316129 13.638965 -15.194005 6 1 1.200
1312 26 -9.538127 7.291669 -10.206170 6 1 1.200
1313 26 -13.637457 20.165374 -11.608526 6 1 1.200
1314 26 -7.320133 20.465359 -7.097444 6 2 1.100
1315 26 -11.020158 21.538532 -3.416979 6 2 1.100
1316 26 -9.367051 16.877020 3.086649 6 2 1.100
1317 26 -4.687925 16.365980 -14.686537 6 2 1.100
1318 26 -2.984708 14.011819 -11.176505 6 2 1.100
1319 26 -3.062816 12.800475 -13.124442 6 2 1.100
1320 26 -3.859973 14.278189 -14.782982 6 2 1.100
1321 26 -2.613394 16.305474 -10.907084 6 2 1.100
1322 26 -3.360351 17.790835 -12.265531 6 2 1.100
1323 26 -5.007874 13.152738 -13.483572 6 2 1.100
1324 26 -6.082392 15.065347 -12.837984 6 2 1.100
1325 26 -2.459206 15.526628 -13.220642 6 2 1.100
1326 26 -5.252421 17.312462 -13.030142 6 2 1.100
1327 26 -10.517957 15.723662 -2.336134 6 2 1.100
1328 26 -10.276720 15.494616 -4.265613 6 2 1.100
1329 26 -19.653562 17.122734 -5.691817 6 2 1.100
1330 26 -11.827394 6.512864 -11.564695 6 2 1.100
1331 26 -10.583861 9.398942 -6.001706 6 2 1.100
1332 26 -6.295686 7.124063 -8.940642 6 2 1.100
1333 26 -9.762598 5.508267 -11.318497 6 2 1.100
1334 26 -5.491159 21.985871 -5.154657 6 2 1.100
1335 26 -8.745508 19.599896 1.521556 6 2 1.100
1336 26 -13.310773 14.775302 3.827543 6 2 1.100
1337 26 -6.136228 18.199838 -8.440308 6 2 1.100
1338 26 -17.329827 14.654906 -6.141911 6 2 1.100
1339 26 -3.846046 15.556088 -8.456694 6 2 1.100
1340 26 -3.577178 12.352541 -8.399432 6 2 1.100
1341 26 -9.090972 20.843212 -12.920412 6 2 1.100
1342 26 -5.873612 14.311843 -9.425711 6 2 1.100
1343 26 -17.706019 18.754013 -5.614271 6 2 1.100
1344 26 -13.230857 13.233631 -3.373624 6 2 1.100
1345 26 -8.907077 12.249812 2.178092 6 2 1.100
1346 26 -11.820051 5.637760 -7.436702 6 2 1.100
1347 26 -10.415708 18.623420 -12.743585 6 2 1.100
1348 26 -11.518908 15.324671 -16.151745 6 2 1.100
1349 26 -9.463698 5.871566 -14.362384 6 2 1.100
1350 26 -14.704535 5.784740 -10.789536 6 2 1.100
1351 26 -5.711117 20.005579 -12.212477 6 2 1.100
1352 26 -6.757624 7.449029 -11.283369 6 2 1.100
1353 26 -7.946657 9.051487 -9.579950 6 2 1.100
1354 26 -10.080373 11.454643 -8.675896 6 2 1.100
1355 26 -16.582372 17.015552 -5.793460 6 2 1.100
1356 26 -12.349573 22.108655 -7.857292 6 2 1.100
1357 26 -14.481458 17.719355 -13.656703 6 2 1.100
1358 26 -8.543336 19.575742 -2.572509 6 2 1.100
1359 26 -14.071438 11.020124 -12.875533 6 2 1.100
1360 26 -16.072806 13.115350 -0.319476 6 2 1.100
1361 26 -14.585857 13.935000 -1.615585 6 2 1.100
1362 26 -14.647209 14.831800 -4.302464 6 2 1.100
1363 26 -11.537625 13.651150 -4.582070 6 2 1.100
1364 26 -12.493169 15.728646 1.713472 6 2 1.100
1365 26 -10.600809 17.551944 -1.354888 6 2 1.100
1366 26 -9.030333 14.293193 -1.765787 6 2 1.100
1367 26 -15.489973 16.157677 -2.706307 6 2 1.100
1368 26 -12.503170 18.639907 -1.452439 6 2 1.100
1369 26 -11.493015 11.383282 -0.991342 6 2 1.100
1370 26 -13.253856 13.479085 0.126893 6 2 1.100
1371 26 -11.729388 17.434512 -3.536159 6 2 1.100
1372 26 -5.157976 18.871464 -4.269805 6 2 1.100
1373 26 -4.728305 20.654600 -3.676408 6 2 1.100
1374 26 -8.170959 22.118986 -1.985270 6 2 1.100
1375 26 -11.170700 18.953010 -9.473383 6 2 1.100
1376 26 -7.264462 20.228109 -1.013598 6 2 1.100
1377 26 -11.759479 6.584243 -3.761110 6 2 1.100
1378 26 -6.768958 8.323601 -5.859187 6 2 1.100
1379 26 -18.822521 11.401431 -4.155264 6 2 1.100
1380 26 -7.264946 22.720909 -3.839105 6 2 1.100
1381 26 -6.111834 21.342465 -2.416700 6 2 1.100
1382 26 -6.325745 13.608721 -16.131141 6 2 1.100
1383 26 -13.486911 18.106920 -10.268351 6 2 1.100
1384 26 -13.537400 12.290176 -6.433584 6 2 1.100
1385 26 -14.941884 12.467372 2.431018 6 2 1.100
1386 26 -7.182908 19.347898 -13.937594 6 2 1.100
1387 26 -13.610135 16.936035 -2.495133 6 2 1.100
1388 26 -12.635345 17.729601 0.283627 6 2 1.100
1389 26 -15.350058 11.556254 -1.741146 6 2 1.100
1390 26 -13.255960 11.452293 -2.263342 6 2 1.100
1391 26 -11.339701 11.852922 -3.316557 6 2 1.100
1392 26 -15.332348 20.479379 -4.080020 6 2 1.100
1393 26 -12.643671 15.476342 -3.775319 6 2 1.100
1394 26 -10.681611 14.549586 1.497962 6 2 1.100
1395 26 -13.815688 21.231568 -2.598329 6 2 1.100
1396 26 -13.098328 16.604674 -12.511810 6 2 1.100
1397 26 -6.150067 18.978533 -2.213698 6 2 1.100
1398 26 -9.794946 8.900077 -2.968847 6 2 1.100
1399 26 -7.206040 6.689152 -14.190547 6 2 1.100
1400 26 -11.894232 5.598677 -9.726359 6 2 1.100
1401 26 -7.278331 10.398425 -6.339874 6 2 1.100
1402 26 -9.637327 8.052744 -12.029888 6 2 1.100
1403 26 -8.623718 11.173877 -10.276173 6 2 1.100
1404 26 -10.996341 21.634630 -9.367115 6 2 1.100
1405 26 -3.929213 15.234710 -4.980115 6 2 1.100
1406 26 -5.689752 15.871770 -1.518422 6 2 1.100
1407 26 -4.430389 16.519044 -3.247233 6 2 1.100
1408 26 -14.092764 15.862482 -0.529451 6 2 1.100
1409 26 -11.528798 15.875133 -0.108990 6 2 1.100
1410 26 -9.423263 5.570946 -6.842368 6 2 1.100
1411 26 -11.490771 11.979854 0.850824 6 2 1.100
1412 26 -9.806158 4.951796 -9.130774 6 2 1.100
1413 26 -14.500812 16.289593 -7.281005 6 2 1.100
1414 26 -10.923135 13.577989 -0.781012 6 2 1.100
1415 26 -15.981323 13.520970 -2.861929 6 2 1.100
1416 26 -15.565831 8.368583 -4.178642 6 2 1.100
1417 26 -16.045323 7.405566 -7.069892 6 2 1.100
1418 26 -14.606463 10.366275 -5.769419 6 2 1.100
1419 26 -14.559874 18.544364 2.166290 6 2 1.100
1420 26 -3.878674 10.959229 -10.924997 6 2 1.100
1421 26 -10.845082 17.295523 -15.665871 6 2 1.100
1422 26 -17.684698 18.065388 -3.602978 6 2 1.100
1423 26 -19.606749 14.933282 -6.721985 6 2 1.100
1424 26 -17.005088 8.643404 -5.848437 6 2 1.100
1425 26 -14.415058 16.056298 -15.046022 6 2 1.100
1426 26 -18.856041 16.540830 -3.042301 6 2 1.100
1427 26 -5.717365 13.602182 -2.416152 6 2 1.100
1428 26 -10.113803 7.982998 -1.492142 6 2 1.100
1429 26 -10.746764 7.795752 -15.973002 6 2 1.100
1430 26 -13.801318 8.472340 -2.603578 6 2 1.100
1431 26 -9.029363 15.888941 -9.768091 6 2 1.100
1432 26 -8.410751 14.146694 -8.436778 6 2 1.100
1433 26 -16.428834 11.334568 -4.924547 6 2 1.100
1434 26 -15.654318 10.730838 -14.252528 6 2 1.100
1435 26 -9.596346 22.704773 -5.918210 6 2 1.100
1436 26 -9.482409 22.798254 -3.805016 6 2 1.100
1437 26 -7.798238 14.387922 -10.617610 6 2 1.100
1438 26 -8.378347 22.064341 -7.607780 6 2 1.100
1439 26 -5.344494 10.976203 -12.355688 6 2 1.100
1440 26 -5.377795 16.172091 -6.876528 6 2 1.100
1441 26 -7.755248 5.866233 -10.475880 6 2 1.100
1442 26 -7.347821 22.862682 -5.971902 6 2 1.100
1443 26 -9.863672 21.142531 -1.802604 6 2 1.100
1444 26 -4.410196 18.623556 -9.440990 6 2 1.100
1445 26 -7.816635 5.724393 -8.247162 6 2 1.100
1446 26 -10.084239 10.196242 -11.334638 6 2 1.100
1447 26 -12.386139 18.530448 -14.401032 6 2 1.100
1448 26 -11.609474 14.685261 -13.444154 6 2 1.100
1449 26 -15.377849 14.775223 0.971813 6 2 1.100
1450 26 -10.948911 20.134595 1.030677 6 2 1.100
1451 26 -10.839536 16.295796 -11.253024 6 2 1.100
1452 26 -7.274973 8.562504 -16.068315 6 2 1.100
1453 26 -8.773292 17.360284 -14.142952 6 2 1.100
1454 26 -11.476868 6.901375 -14.415294 6 2 1.100
1455 26 -9.265533 15.904470 -0.344468 6 2 1.100
1456 26 -13.831071 11.420995 -0.037609 6 2 1.100
1457 26 -5.639412 21.621951 -7.408009 6 2 1.100
1458 26 -6.400919 21.073524 -10.719844 6 2 1.100
1459 26 -17.153964 12.316923 -8.518181 6 2 1.100
1460 26 -4.709543 12.115846 -6.210063 6 2 1.100
1461 26 -9.702192 19.354937 -4.449210 6 2 1.100
1462 26 -15.743539 19.815707 -0.701888 6 2 1.100
1463 26 -11.200134 10.585910 -14.309103 6 2 1.100
1464 26 -11.084762 18.569919 2.921950 6 2 1.100
1465 26 -12.960662 10.084709 -15.415041 6 2 1.100
1466 26 -13.381403 18.137574 -5.851639 6 2 1.100
1467 26 -7.720125 17.678707 1.396097 6 2 1.100
1468 26 -11.649372 20.817930 -11.152668 6 2 1.100
1469 26 -18.079258 13.017118 -11.401443 6 2 1.100
1470 26 -7.176772 14.147343 -6.732660 6 2 1.100
1471 26 -15.424488 19.566536 -10.354143 6 2 1.100
1472 26 -6.429317 8.717398 -14.303694 6 2 1.100
1473 26 -15.553361 15.317906 -11.788671 6 2 1.100
1474 26 -13.303627 14.405371 -15.609366 6 2 1.100
1475 26 -10.583444 21.076472 -5.300482 6 2 1.100
1476 26 -13.753803 21.124373 -6.676051 6 2 1.100
1477 26 -7.025243 15.695375 -3.244222 6 2 1.100
1478 26 -11.619823 10.010656 -7.648480 6 2 1.100
1479 26 -9.416455 12.097746 -16.409296 6 2 1.100
1480 26 -9.067438 14.175553 -16.948476 6 2 1.100
1481 26 -9.306367 9.296347 -15.992049 6 2 1.100
1482 26 -7.190391 11.726117 -14.449583 6 2 1.100
1483 26 -7.576291 15.625482 -15.909270 6 2 1.100
1484 26 -7.171419 11.772069 -16.513952 6 2 1.100
1485 26 -8.488182 14.559326 -13.640343 6 2 1.100
1486 26 -12.057572 8.631282 -0.974595 6 2 1.100
1487 26 -6.604208 19.107839 -5.719335 6 2 1.100
1488 26 -16.534211 6.668864 -9.803492 6 2 1.100
1489 26 -8.460383 21.193883 -10.782905 6 2 1.100
1490 26 -3.870746 17.538939 -7.612177 6 2 1.100
1491 26 -4.463145 20.205421 -6.118138 6 2 1.100
1492 26 -7.613396 16.323009 -6.508001 6 2 1.100
1493 26 -10.797634 7.099013 -8.356197 6 2 1.100
1494 26 -5.253133 16.629121 -9.980505 6 2 1.100
1495 26 -5.975160 9.150982 -7.880222 6 2 1.100
1496 26 -6.212776 12.779338 -4.148668 6 2 1.100
1497 26 -17.573125 10.042951 -9.014808 6 2 1.100
1498 26 -12.208027 19.588818 -7.581581 6 2 1.100
1499 26 -7.757196 18.287458 -4.074639 6 2 1.100
1500 26 -9.614958 13.288492 -3.591454 6 2 1.100
1501 26 -9.582360 11.923261 -1.861231 6 2 1.100
1502 26 -19.451312 11.495566 -6.456396 6 2 1.100
1503 26 -8.137035 18.168652 -9.101208 6 2 1.100
1504 26 -12.367844 8.043079 -7.013009 6 2 1.100
1505 26 -9.202319 16.642276 -7.765844 6 2 1.100
1506 26 -7.235546 17.076760 -10.761987 6 2 1.100
1507 26 -12.558453 14.597027 -1.660597 6 3 2.400
1508 26 -8.854042 7.693662 -14.980923 6 3 2.400
1509 26 -6.824843 15.862743 -8.587035 6 3 2.400
1510 26 -14.836069 7.623476 -5.742860 6 3 2.400
1511 26 -18.328212 16.097520 -5.220802 6 3 2.400
1512 26 -10.318169 16.718346 -13.007460 6 3 2.400
1513 26 -10.950742 14.201750 -7.388452 6 4 2.800
