17
OMol25 neutral-validation row=8647 | collection=neutral-validation | formula=C7H5BrN2OS | configuration_id=CO_3420886420545682973791885 | property_id=PO_1185595006047615712015730 | method=ωB97M-V | charge=0 | multiplicity=1 | charge_source=record | data_id=geom_orca6 | energy_eV=-93245.8629496 | max_force_eV_per_A=0.756917725745 | homo_lumo_gap_eV=8.66326175719 | coordinates=source | bonds=not-provided | license=CC-BY-4.0 | source=colabfit/OMol25_neutral_validation
C -1.183223 -2.606144 0.000122
C -0.308988 -1.401723 0.000053
C -0.804261 -0.120768 0.000031
C 0.026629 1.048583 -0.000129
O -0.306363 2.21001 -0.000219
N 1.406474 0.698578 0.000087
C 1.81187 -0.603175 -0.000075
N 1.022257 -1.627614 -0.000103
S 3.545123 -0.707858 -0.000111
C 3.647917 1.031204 0.000176
C 2.439311 1.608153 0.000275
H 2.195271 2.654722 0.000411
H 4.605196 1.509453 0.000222
Br -2.665549 0.218545 0.000009
H -1.827106 -2.603486 0.878595
H -1.827248 -2.603564 -0.878246
H -0.564991 -3.49814 0.000108
