41
OMol25 neutral-validation row=7851 | collection=neutral-validation | formula=C15H19Br2N3O2 | configuration_id=CO_8575918106475989551274731 | property_id=PO_6215537515994456228850431 | method=ωB97M-V | charge=0 | multiplicity=1 | charge_source=record | data_id=spice | energy_eV=-164514.690129 | max_force_eV_per_A=1.29052979073 | homo_lumo_gap_eV=8.22178423033 | coordinates=source | bonds=not-provided | license=CC-BY-4.0 | source=colabfit/OMol25_neutral_validation
O 3.919843 0.274493 -2.668835
O 1.36017 -2.139099 0.162302
Br -4.476479 0.731511 4.681653
Br -6.096239 -0.876741 6.979004
C 4.080579 0.821942 -1.586145
C 1.963024 -1.455902 -0.660355
C -1.068532 -0.801101 -2.16824
C -0.495111 0.18213 -1.437811
C -2.693963 1.718254 1.366297
C -3.837322 0.932101 1.135077
C -1.539706 1.550401 0.576471
C -3.831692 -0.031332 0.112253
C -1.502543 0.595036 -0.463365
C -2.677829 -0.18771 -0.669258
N -2.357975 -1.018752 -1.721706
N 2.695079 -2.012156 -1.631379
N 3.183427 0.802635 -0.597052
C -5.59305 0.918032 6.306549
C 5.362326 1.573328 -1.311092
C 2.834833 -3.450832 -1.843546
C 0.911952 0.674371 -1.581582
C 1.893392 0.081608 -0.558302
H -0.574766 -1.345956 -2.963997
H -2.702679 2.452848 2.1598
H -4.72004 1.068334 1.74446
H -0.66819 2.15759 0.76424
H -4.702656 -0.641385 -0.071132
H -2.969365 -1.721998 -2.108846
H 3.171637 -1.379597 -2.26683
H 3.437037 1.299084 0.241396
H -5.035311 1.457775 7.077352
H -6.494962 1.490469 6.071314
H 5.925148 1.050004 -0.54024
H 5.13307 2.585827 -0.984098
H 5.950932 1.612395 -2.22716
H 3.454971 -3.880494 -1.055053
H 3.294961 -3.641996 -2.81363
H 1.851556 -3.924685 -1.810667
H 0.89947 1.758955 -1.469329
H 1.259056 0.450118 -2.590988
H 1.455948 0.270494 0.422473
