55
OMol25 neutral-validation row=27019 | collection=neutral-validation | formula=C21H17FN7NaO5S3 | configuration_id=CO_1116920413695919946479577 | property_id=PO_4228709526097972593387460 | method=ωB97M-V | charge=0 | multiplicity=1 | charge_source=record | data_id=orbnet_denali | energy_eV=-82359.517132 | max_force_eV_per_A=1.11480451814 | homo_lumo_gap_eV=6.63269370928 | coordinates=source | bonds=not-provided | license=CC-BY-4.0 | source=colabfit/OMol25_neutral_validation
N 2.226699 -7.643561 0.715353
C 1.483309 -6.81914 -0.069575
N 0.260752 -7.08884 -0.406463
C -0.267749 -6.101869 -1.226786
C -1.620664 -6.189821 -1.759929
N -2.471569 -7.146637 -1.641668
O -2.058299 -8.222247 -0.862861
C -2.990751 -9.297511 -0.937444
C -2.270976 -10.514656 -0.395225
F -1.859654 -10.21295 0.887985
C -2.12202 -5.003364 -2.563321
O -1.436549 -4.472338 -3.415309
N -3.355648 -4.536872 -2.257077
C -4.219729 -5.07605 -1.230387
C -5.33011 -4.220208 -0.56957
O -6.263941 -3.585167 -0.98033
N -4.840709 -4.505594 0.660414
C -5.022245 -4.38117 2.048397
C -6.35878 -4.974153 2.737557
O -6.663415 -6.071023 2.277267
O -6.822449 -4.268924 3.624051
C -3.875656 -4.086278 2.67728
S -3.69098 -4.244498 4.434893
C -2.65413 -5.622604 4.471179
N -2.102276 -6.07156 5.547595
C -1.306201 -7.165782 5.307084
C -0.562569 -7.904218 6.220219
C 0.171562 -8.963612 5.706034
C 0.15979 -9.247197 4.342666
N -0.548103 -8.543139 3.447732
C -1.259503 -7.545191 3.952024
S -2.259708 -6.506833 3.003785
C -2.669186 -3.579578 1.910274
C -2.41922 -4.319482 0.572579
C -3.626848 -5.167415 0.190884
C 0.594469 -5.063537 -1.451095
S 2.091885 -5.308909 -0.657864
Na -1.108747 -8.175997 1.141376
H 2.026595 -8.628189 0.613207
H 3.205852 -7.423452 0.809132
H -3.293588 -9.462418 -1.979385
H -3.876894 -9.073195 -0.325228
H -1.364954 -10.743294 -0.97041
H -2.929935 -11.387491 -0.329431
H -3.675656 -3.748918 -2.806761
H -4.64101 -6.035525 -1.557051
H -0.557412 -7.662423 7.277587
H 0.768909 -9.582345 6.36574
H 0.746237 -10.072473 3.95026
H -1.771292 -3.638782 2.530693
H -2.836562 -2.518773 1.690761
H -1.538674 -4.961888 0.673357
H -2.214868 -3.585934 -0.212594
H -3.543254 -6.18961 0.585797
H 0.439034 -4.179831 -2.046831
