32
OMol25 neutral-validation row=4138 | collection=neutral-validation | formula=C12H10I3KN2O4 | configuration_id=CO_1096956426848583631325991 | property_id=PO_1099716137569092483626862 | method=ωB97M-V | charge=0 | multiplicity=1 | charge_source=record | data_id=orbnet_denali | energy_eV=-64405.6435032 | max_force_eV_per_A=1.1759890839 | homo_lumo_gap_eV=8.25832912176 | coordinates=source | bonds=not-provided | license=CC-BY-4.0 | source=colabfit/OMol25_neutral_validation
C 7.975894 3.557996 4.546876
C 7.693474 2.985739 3.185741
O 7.79736 3.637965 2.155474
N 7.319038 1.674166 3.168736
C 6.718958 1.156795 1.986402
C 7.462552 1.008074 0.817793
I 9.58803 1.155595 0.878458
C 6.822563 0.711419 -0.382608
C 7.619418 0.851912 -1.749733
O 7.878618 -0.166454 -2.369558
O 7.866561 2.051422 -2.000848
C 5.449544 0.485278 -0.395998
I 4.443472 0.103289 -2.211584
C 4.721429 0.549849 0.793918
N 3.318449 0.305445 0.788868
C 2.891443 -1.082101 0.959299
C 2.394345 1.277111 0.553332
C 2.958079 2.666309 0.325031
O 1.19889 1.058388 0.541505
C 5.346209 0.907893 1.985981
I 4.234132 1.127418 3.767281
K 7.962088 3.780562 -0.408888
H 8.472134 4.524382 4.433104
H 8.595308 2.895282 5.141644
H 7.031545 3.718601 5.073869
H 6.991903 1.255059 4.033532
H 3.333094 -1.699053 0.176497
H 1.802383 -1.117044 0.883973
H 3.203315 -1.449066 1.938137
H 3.623016 2.66494 -0.545119
H 3.518416 2.997241 1.199479
H 2.133075 3.352648 0.143245
