32
OMol25 neutral-validation row=2728 | collection=neutral-validation | formula=C15H11BrF3NO | configuration_id=CO_7148881229468461933592928 | property_id=PO_1080447318103968239336860 | method=ωB97M-V | charge=0 | multiplicity=1 | charge_source=record | data_id=geom_orca6 | energy_eV=-97446.2482119 | max_force_eV_per_A=48.9453305232 | homo_lumo_gap_eV=7.45850485235 | coordinates=source | bonds=not-provided | license=CC-BY-4.0 | source=colabfit/OMol25_neutral_validation
C 8.125654 1.110749 0.05188
C 6.833125 0.561453 -0.027437
C 5.807305 1.360189 0.566351
C 4.415129 0.737826 0.586308
C 4.100271 -0.632028 -0.138143
C 5.056762 -1.258148 -0.529219
C 6.303038 -0.786617 -0.44057
H 7.162988 -1.199619 -1.204086
H 4.83439 -2.103941 -1.119315
C 2.761208 -1.116734 0.001849
O 2.491474 -2.070515 0.022383
N 1.591862 -0.055211 -0.107875
C 0.352115 -0.564311 -0.108754
C -0.497294 0.810264 -0.037717
C -1.905107 0.547747 -0.19119
C -2.511194 -0.746397 0.153267
C -1.563384 -1.977343 0.158738
C -0.26622 -1.712074 0.176914
H 0.522022 -2.410891 0.090928
H -2.057971 -2.754788 0.294245
Br -4.363097 -0.998786 -0.044162
C -2.896399 1.875343 0.006426
F -2.075167 3.032898 -0.171262
F -3.637013 1.8161 -1.05527
F -3.578193 2.086172 0.678922
H -0.01976 1.739736 -0.156186
H 1.974729 0.635995 -0.076336
H 3.628649 1.488712 1.100452
H 5.77834 2.180827 1.17982
H 8.610049 0.83207 -0.896619
H 8.089267 2.299532 0.056536
H 8.617502 0.636346 0.651657
