15
OMol25 neutral-validation row=3082 | collection=neutral-validation | formula=C5H6BNO2 | configuration_id=CO_5633959493172421938608269 | property_id=PO_1083964742454003064415027 | method=ωB97M-V | charge=0 | multiplicity=1 | charge_source=record | data_id=orbnet_denali | energy_eV=-11546.7570707 | max_force_eV_per_A=0.374490955907 | homo_lumo_gap_eV=10.1484864178 | coordinates=source | bonds=not-provided | license=CC-BY-4.0 | source=colabfit/OMol25_neutral_validation
O -2.575199 1.177659 0.026604
B -1.80788 0.129107 -0.382254
O -2.415083 -0.868427 -1.107984
C -0.289401 0.123245 -0.002713
C 0.581974 -0.902803 -0.372082
C 1.914219 -0.834482 0.00365
C 2.343147 0.26011 0.741182
N 1.528209 1.246672 1.102341
C 0.252715 1.176111 0.739664
H -3.495188 1.112641 -0.242251
H -1.866125 -1.601038 -1.391258
H 0.220904 -1.749529 -0.950462
H 2.611044 -1.618093 -0.270693
H 3.37975 0.348906 1.053942
H -0.383084 1.999922 1.052313
