33
OMol25 neutral-validation row=4243 | collection=neutral-validation | formula=C15H9MgO7P | configuration_id=CO_9243511059313865629468157 | property_id=PO_5434156425716615983144631 | method=ωB97M-V | charge=0 | multiplicity=1 | charge_source=record | data_id=orbnet_denali | energy_eV=-44772.3100322 | max_force_eV_per_A=1.38142645953 | homo_lumo_gap_eV=7.13528800915 | coordinates=source | bonds=not-provided | license=CC-BY-4.0 | source=colabfit/OMol25_neutral_validation
O -1.075651 2.027468 -0.651819
C -0.947234 0.791383 -0.359517
C -2.004765 -0.17735 -0.470504
O -3.231688 0.186345 -0.851298
P -4.304813 1.470929 -0.349971
O -5.639671 0.860225 -0.319625
O -3.62554 1.991608 0.943835
O -4.033837 2.594806 -1.399007
C -1.758509 -1.521349 -0.18382
C -2.698447 -2.632134 -0.259521
C -3.917311 -2.576363 -0.953584
C -4.754047 -3.67536 -1.012933
C -4.389375 -4.867413 -0.386071
O -5.141986 -5.983339 -0.42617
C -3.184253 -4.937387 0.321278
C -2.356269 -3.84069 0.379536
O -0.529183 -1.903585 0.211306
C 0.503316 -1.05374 0.362656
C 1.730027 -1.563969 0.802351
C 2.792813 -0.700433 0.954645
C 2.653964 0.666667 0.674743
C 1.449021 1.16897 0.242275
C 0.342474 0.310834 0.081727
Mg -2.562741 3.049135 -0.310969
H -4.215557 -1.681238 -1.481846
H -5.69159 -3.606381 -1.552122
H -5.949532 -5.915674 -0.961877
H -2.91523 -5.865184 0.811415
H -1.429537 -3.909997 0.936304
H 1.820973 -2.621824 1.012863
H 3.748279 -1.082942 1.295357
H 3.504397 1.326316 0.805211
H 1.324406 2.225135 0.021559
