62
OMol25 neutral-validation row=17445 | collection=neutral-validation | formula=C28H25CaFNO5P | configuration_id=CO_9188712132792538131228161 | property_id=PO_8293773434655838591393875 | method=ωB97M-V | charge=0 | multiplicity=1 | charge_source=record | data_id=orbnet_denali | energy_eV=-71617.9192362 | max_force_eV_per_A=2.45068849697 | homo_lumo_gap_eV=7.94254098695 | coordinates=source | bonds=not-provided | license=CC-BY-4.0 | source=colabfit/OMol25_neutral_validation
C 6.117225 -8.010297 -2.816532
C 6.493379 -7.368283 -1.47959
C 7.152152 -5.999304 -1.700923
C 5.289946 -7.289066 -0.56485
N 5.331317 -8.094653 0.487104
C 4.335235 -8.100538 1.374781
C 3.218289 -7.271998 1.249995
C 3.120823 -6.468803 0.116085
C 1.906077 -5.644929 -0.06009
C 1.959253 -4.256938 0.062177
C 0.791806 -3.506098 0.084958
C -0.423228 -4.164556 -0.007392
F -1.534968 -3.436205 0.097453
C -0.516003 -5.539499 -0.138236
C 0.663407 -6.269366 -0.1801
C 4.177784 -6.463367 -0.812564
C 4.094501 -5.614816 -1.942681
C 4.037152 -4.860415 -2.89004
P 3.668363 -3.531499 -4.061905
O 3.365746 -2.376699 -3.098944
O 4.744803 -3.36404 -5.071746
C 2.086124 -4.198694 -4.755454
C 1.360291 -3.174176 -5.643714
O 1.81123 -1.864465 -5.359926
C -0.180443 -3.224004 -5.592031
C -0.820654 -3.048596 -4.193958
O -1.984185 -3.331353 -4.02063
O -0.02656 -2.62179 -3.272936
C 2.222137 -7.234805 2.373253
C 1.984434 -8.635395 2.938571
C 3.291188 -9.299307 3.279264
C 3.387883 -10.203363 4.333744
C 4.595489 -10.835862 4.607788
C 5.720475 -10.575332 3.831095
C 5.629659 -9.673325 2.784624
C 4.426777 -9.029192 2.50084
Ca 1.561222 -2.684937 -2.183704
H 6.997452 -8.104097 -3.451878
H 5.376502 -7.401921 -3.341405
H 5.698643 -8.99958 -2.652957
H 7.227671 -8.01608 -0.972835
H 6.587009 -5.399684 -2.417512
H 8.160959 -6.127773 -2.097977
H 7.220714 -5.438504 -0.76421
H 2.918865 -3.770163 0.237353
H 0.819413 -2.425733 0.234101
H -1.484467 -6.025049 -0.196099
H 0.618022 -7.350605 -0.278745
H 1.469848 -4.501109 -3.896487
H 2.296435 -5.108653 -5.320833
H 1.651329 -3.355752 -6.690801
H 1.596936 -1.642184 -4.439905
H -0.551179 -4.165186 -6.022264
H -0.555609 -2.404361 -6.207144
H 1.270521 -6.80764 2.056253
H 2.614183 -6.585289 3.163458
H 1.45962 -9.242164 2.194715
H 1.340293 -8.575009 3.820926
H 2.513405 -10.4164 4.941656
H 4.654933 -11.539556 5.436467
H 6.655541 -11.078883 4.045183
H 6.495584 -9.459553 2.163931
