54
OMol25 neutral-validation row=12950 | collection=neutral-validation | formula=C25H23NO4Si | configuration_id=CO_1565591624936759839382705 | property_id=PO_7322348094360715820751061 | method=ωB97M-V | charge=0 | multiplicity=1 | charge_source=record | data_id=orbnet_denali | energy_eV=-43856.326274 | max_force_eV_per_A=0.702073980041 | homo_lumo_gap_eV=7.56381291626 | coordinates=source | bonds=not-provided | license=CC-BY-4.0 | source=colabfit/OMol25_neutral_validation
C -0.046974 3.632193 1.294587
O -1.108208 2.428717 -1.602756
C -1.27287 1.200778 -0.959954
C -2.564293 1.08318 -0.17678
O -3.081071 2.048375 0.34051
C -3.110809 -0.284708 0.016164
C -2.742069 -1.366536 -0.794842
C -3.337191 -2.61284 -0.594755
C -4.270337 -2.7916 0.413524
C -4.636416 -1.71908 1.219959
C -4.070435 -0.471871 1.0134
C -0.970838 1.107821 2.916041
O -1.642966 -2.053843 -2.767125
C 2.037235 1.436843 2.236066
C 0.273735 -0.18398 -0.753834
C 1.330541 -1.184806 -0.681677
C 1.023795 -2.533525 -0.6644
C 2.007921 -3.522257 -0.534512
C 3.329861 -3.15172 -0.435161
O 4.326661 -4.043566 -0.294505
C 3.687968 -1.777977 -0.492063
N 5.014411 -1.507683 -0.423704
C 5.399879 -0.256951 -0.509904
C 4.496544 0.806527 -0.691734
C 3.150485 0.553184 -0.753376
C 2.696457 -0.778904 -0.626604
C -0.088002 0.889548 -0.012608
Si 0.262582 1.784966 1.618065
C -2.157773 2.844921 -2.463068
C -0.832556 -0.042827 -1.798013
C -1.746416 -1.229604 -1.889539
H 0.053844 4.259799 2.186909
H -2.013084 1.351711 2.687846
H -1.059781 3.80337 0.911107
H -4.358458 0.377364 1.623574
H -3.050583 -3.435372 -1.241068
H -4.720574 -3.7655 0.568585
H -5.371303 -1.856779 2.004964
H -0.779036 1.515346 3.915196
H -0.927744 0.017897 3.020443
H 1.729727 -4.56828 -0.507767
H 5.157909 -3.521774 -0.267925
H 6.467002 -0.06317 -0.45012
H 4.875282 1.817042 -0.788761
H 2.273054 0.367658 2.27327
H -1.788926 3.724067 -2.993895
H -3.054715 3.114273 -1.894556
H -2.410647 2.062674 -3.190032
H 2.817074 1.899255 1.623088
H 2.191583 1.814621 3.253498
H 0.630691 4.053879 0.543828
H -0.0134 -2.842328 -0.726303
H -0.445594 0.215401 -2.786482
H 2.438832 1.356069 -0.912801
