26
OMol25 neutral-validation row=1008 | collection=neutral-validation | formula=C4H14N4OS3 | configuration_id=CO_2436443309593284359689318 | property_id=PO_1055695705807699439959167 | method=ωB97M-V | charge=0 | multiplicity=1 | charge_source=record | data_id=ani2x | energy_eV=-44872.2498481 | max_force_eV_per_A=32.9885999072 | homo_lumo_gap_eV=5.62478397094 | coordinates=source | bonds=not-provided | license=CC-BY-4.0 | source=colabfit/OMol25_neutral_validation
C 4.607475 0.301272 1.66034
C 3.085523 -0.756778 -0.383182
C 1.999275 -0.587741 -1.441399
C -2.88043 0.331913 0.227311
H 4.994674 1.190388 2.160542
H 5.453307 -0.307326 1.32565
H 4.007369 -0.265023 2.37452
H 2.709048 -1.374438 0.439404
H 3.949707 -1.2624 -0.82856
H 1.833438 -1.548358 -1.938548
H 2.318583 0.120909 -2.212901
H 0.764624 1.025562 -0.191092
H -3.366273 3.042763 -0.902204
H -2.632847 3.139904 0.524765
H -4.51989 -0.583745 0.788495
H -2.742568 -2.429962 1.040511
H -1.182079 1.124967 -0.396491
H -0.039903 -1.432397 0.529691
N -2.753502 2.524435 -0.277826
N -3.555385 1.42539 0.197133
N -3.586158 -0.847522 0.479453
N -1.529607 0.245192 -0.022795
O -3.004045 -1.621092 1.504871
S 3.607985 0.855825 0.264666
S 0.370744 -0.110951 -0.792205
S -0.754562 -1.15966 -0.582644
