54
OMol25 neutral-validation row=10866 | collection=neutral-validation | formula=C25H23NO4Si | configuration_id=CO_1292909358262304266772153 | property_id=PO_1236363103366369933775390 | method=ωB97M-V | charge=0 | multiplicity=1 | charge_source=record | data_id=orbnet_denali | energy_eV=-43856.3514492 | max_force_eV_per_A=0.736260867813 | homo_lumo_gap_eV=7.6398687402 | coordinates=source | bonds=not-provided | license=CC-BY-4.0 | source=colabfit/OMol25_neutral_validation
C -2.535009 0.800262 3.471677
O -1.415896 0.986841 2.617527
C -1.480074 0.402933 1.351772
C -2.716202 0.780523 0.558293
O -3.32007 1.809746 0.755262
C -3.109241 -0.147177 -0.535015
C -3.913156 0.347015 -1.563566
C -4.339416 -0.488804 -2.583054
C -3.995687 -1.83653 -2.569092
C -3.222578 -2.344171 -1.537271
C -2.762281 -1.503949 -0.523241
C -1.933634 -2.08472 0.564807
O -1.912158 -3.27046 0.794593
C -1.067715 -1.108028 1.306507
C 0.137515 -0.615057 0.510268
C 1.23479 -1.395508 -0.046311
C 0.979738 -2.484534 -0.861319
C 2.003912 -3.227492 -1.461945
C 3.315798 -2.882337 -1.228163
O 4.350632 -3.540077 -1.77982
C 3.619817 -1.796371 -0.363974
N 4.937866 -1.550395 -0.165093
C 5.274602 -0.580171 0.650516
C 4.325189 0.196841 1.339544
C 2.98762 -0.032243 1.143886
C 2.586973 -1.046281 0.244823
C -0.197938 0.697237 0.535516
Si 0.411887 2.374951 -0.093827
C -1.012264 3.201408 -1.058652
C 0.862227 3.437664 1.42419
C 1.900965 2.124782 -1.266657
H -2.22236 1.130794 4.463705
H -2.828633 -0.255906 3.518166
H -3.390291 1.400049 3.142528
H -4.191047 1.395302 -1.549923
H -4.951349 -0.093991 -3.386139
H -4.340944 -2.492292 -3.360303
H -2.959623 -3.395787 -1.502144
H -0.791045 -1.509247 2.284123
H -0.047036 -2.762172 -1.069104
H 1.764988 -4.063108 -2.107635
H 5.162797 -3.107018 -1.43779
H 6.336129 -0.399422 0.792862
H 4.661072 0.965914 2.024883
H 2.241558 0.542381 1.682243
H -0.704695 4.148758 -1.516499
H -1.87294 3.439203 -0.425076
H -1.400113 2.582201 -1.875323
H 1.727203 3.062339 1.981513
H 1.09321 4.477146 1.165985
H 0.035768 3.478534 2.143168
H 1.698758 1.39066 -2.054578
H 2.170464 3.053394 -1.782941
H 2.81192 1.786369 -0.763904
