36
OMol25 neutral-validation row=8140 | collection=neutral-validation | formula=C15H17IO2S | configuration_id=CO_9257600141855171249132675 | property_id=PO_1176773764513045096968577 | method=ωB97M-V | charge=0 | multiplicity=1 | charge_source=record | data_id=orbnet_denali | energy_eV=-38862.1541734 | max_force_eV_per_A=0.467553157804 | homo_lumo_gap_eV=9.25252432155 | coordinates=source | bonds=not-provided | license=CC-BY-4.0 | source=colabfit/OMol25_neutral_validation
C -0.400624 -1.753126 -2.940414
O -0.620304 -0.668789 -2.037381
C -1.219704 -0.983803 -0.887221
O -1.617945 -2.088938 -0.629038
C -1.476377 1.535958 -0.687113
C -2.314901 2.539831 0.11034
C -1.39665 3.146038 1.185951
C 0.039673 2.67887 0.901983
C 0.398535 1.401901 1.665037
C -0.240772 0.080407 1.15788
C -1.359917 0.199315 0.065865
C 0.848897 -0.887242 0.724288
C 1.761169 -0.568361 -0.279227
C 2.738303 -1.473417 -0.663166
C 2.82724 -2.716657 -0.046825
I 4.311309 -4.098482 -0.63736
C 1.923714 -3.039862 0.958118
C 0.944968 -2.133154 1.338147
S 0.119529 2.366554 -0.881526
H -1.910106 1.361233 -1.673977
H -1.336489 -2.287603 -3.124063
H 0.333503 -2.444347 -2.516793
H -0.020768 -1.322522 -3.866187
H -2.662968 3.324224 -0.566639
H -1.442981 4.237063 1.146206
H 0.760543 3.458401 1.161132
H 1.485939 1.287613 1.628309
H -1.707235 2.835717 2.18742
H -3.193252 2.063912 0.55415
H 0.128049 1.536677 2.717881
H -0.735251 -0.380943 2.022182
H -2.313798 0.024798 0.580628
H 1.693362 0.391519 -0.781032
H 3.434469 -1.208941 -1.450289
H 1.979197 -4.005804 1.445586
H 0.241644 -2.40804 2.117147
