31
OMol25 neutral-validation row=14413 | collection=neutral-validation | formula=C7H16N4O3S | configuration_id=CO_7624428659934871073235819 | property_id=PO_1312618787192191599753486 | method=ωB97M-V | charge=0 | multiplicity=1 | charge_source=record | data_id=spice | energy_eV=-30458.4099838 | max_force_eV_per_A=1.18129406724 | homo_lumo_gap_eV=9.01009808346 | coordinates=source | bonds=not-provided | license=CC-BY-4.0 | source=colabfit/OMol25_neutral_validation
O -1.208327 0.495164 0.491107
O 0.47766 1.244274 -3.616292
S 1.935115 -1.43995 2.095591
O -0.318329 -1.486721 -1.079031
C -0.141301 1.011391 0.80302
C 0.08925 1.174972 -2.453618
C 0.705242 -2.483344 2.408345
N 0.041656 -3.103174 1.394662
N 0.369813 -2.737879 3.701139
N -1.087475 1.690312 -2.076385
N 0.91564 1.042658 -0.00953
C 0.016889 1.657663 2.158364
C -2.024103 2.359224 -2.977006
C 0.958248 -0.993303 -1.442444
C 1.021491 0.541642 -1.40152
H -0.723638 -0.844567 -0.463904
H 0.20205 -2.70834 0.465494
H -0.894606 -3.432994 1.59953
H -0.075742 -3.63084 3.882644
H 1.042404 -2.39143 4.380483
H -1.372093 1.539474 -1.116496
H 1.759915 1.423704 0.388809
H -0.898144 1.5136 2.730828
H 0.209474 2.721218 2.034021
H 0.847867 1.192544 2.68596
H -2.766001 2.916958 -2.404172
H -1.482538 3.047192 -3.629791
H -2.529106 1.615734 -3.59585
H 1.710213 -1.39863 -0.764763
H 1.192165 -1.334503 -2.452191
H 2.026309 0.797949 -1.737005
