27
OMol25 neutral-validation row=11984 | collection=neutral-validation | formula=C12H11Cl2NO | configuration_id=CO_1199376176254529244185252 | property_id=PO_1259774114125995199992328 | method=ωB97M-V | charge=0 | multiplicity=1 | charge_source=record | data_id=geom_orca6 | energy_eV=-41205.2620917 | max_force_eV_per_A=0.361988347081 | homo_lumo_gap_eV=9.1365766057 | coordinates=source | bonds=not-provided | license=CC-BY-4.0 | source=colabfit/OMol25_neutral_validation
O -5.050128 -1.831829 -0.01678
C -4.223794 -0.956017 -0.157122
C -3.537562 -0.204295 0.863814
C -2.687335 0.697668 0.32236
N -1.927933 1.591183 1.001841
H -1.882403 1.458974 2.001177
C -0.856349 2.349089 0.415764
C 0.441085 1.587218 0.224046
C 0.519142 0.217868 0.423078
C 1.716725 -0.454892 0.228226
C 2.851856 0.244066 -0.169371
C 2.775724 1.615129 -0.369676
C 1.580656 2.278595 -0.174171
H 1.530914 3.345185 -0.33271
H 3.658198 2.152687 -0.677677
Cl 4.344634 -0.578796 -0.413069
Cl 1.781998 -2.157392 0.48129
H -0.347017 -0.34835 0.728858
H -0.663084 3.21605 1.05544
H -1.185153 2.728239 -0.557213
C -2.709144 0.657966 -1.179862
C -3.709538 -0.451842 -1.507772
H -4.549627 -0.099655 -2.105396
H -3.249617 -1.280592 -2.045584
H -1.714539 0.444359 -1.577057
H -3.030185 1.621732 -1.581018
H -3.703719 -0.363378 1.91377
