53
OMol25 neutral-validation row=16918 | collection=neutral-validation | formula=C21H23Cl3N2O4 | configuration_id=CO_1119022185008507552787856 | property_id=PO_1585029006012084317097913 | method=ωB97M-V | charge=0 | multiplicity=1 | charge_source=record | data_id=spice | energy_eV=-70888.7619835 | max_force_eV_per_A=1.10268440493 | homo_lumo_gap_eV=9.16882209814 | coordinates=source | bonds=not-provided | license=CC-BY-4.0 | source=colabfit/OMol25_neutral_validation
O -3.741977 1.447872 1.332086
O -1.552279 3.699433 4.136087
Cl 6.516341 -7.054327 -3.788059
Cl 2.520368 -7.249741 -0.111155
Cl 0.709344 1.979754 -0.729206
O 1.956009 -4.480997 -0.967566
O 0.159458 -3.829485 -3.046398
C -3.896145 2.649482 1.13211
C -1.623202 2.825599 3.274601
C 4.81386 -4.978383 -3.315377
C 4.456341 -6.964188 -1.997276
C 3.743166 -4.358155 -2.66649
C 2.226089 -2.156718 -0.49809
C 1.959683 -0.817969 -0.794814
C 0.477724 -1.510124 -2.574856
C 5.175608 -6.282897 -2.981307
C 3.383518 -6.351181 -1.340166
C 3.011717 -5.03406 -1.662863
C 1.634488 -3.178445 -1.247102
C 0.746222 -2.851391 -2.287287
C 1.084049 -0.482177 -1.838119
N -1.771939 1.532797 3.582134
N -2.897702 3.538157 1.282299
C -5.259912 3.146202 0.687103
C 0.823066 0.958351 -2.197071
C -1.851059 1.007734 4.943714
C -2.966384 4.964683 0.994767
C -1.668526 5.567293 1.533487
C -0.689695 4.394798 1.467026
C -1.570762 3.17663 1.776483
H -0.517382 -3.450268 -3.626679
H 5.369461 -4.448908 -4.083738
H 4.732976 -7.980684 -1.737286
H 3.492352 -3.344458 -2.959653
H 2.90861 -2.416738 0.30536
H 2.444663 -0.041383 -0.210076
H -0.198803 -1.261129 -3.385556
H -1.945752 0.898409 2.814375
H -5.934008 2.295123 0.600276
H -5.649353 3.840494 1.429582
H -5.170598 3.6411 -0.277835
H -0.110825 1.04263 -2.760969
H 1.635214 1.32471 -2.832383
H -2.288401 0.008826 4.93372
H -2.473974 1.661763 5.557394
H -0.853271 0.962736 5.382394
H -3.823482 5.430103 1.483122
H -3.019693 5.11025 -0.08532
H -1.33227 6.410167 0.92875
H -1.810471 5.87324 2.571054
H -0.303009 4.317133 0.450696
H 0.133248 4.504532 2.175149
H -1.192701 2.313804 1.22893
