25
OMol25 neutral-validation row=15395 | collection=neutral-validation | formula=C11H5LiN6OS | configuration_id=CO_1324948326051256071641143 | property_id=PO_7858120668699243409347694 | method=ωB97M-V | charge=0 | multiplicity=1 | charge_source=record | data_id=orbnet_denali | energy_eV=-33517.9466339 | max_force_eV_per_A=0.738368450245 | homo_lumo_gap_eV=7.8694239927 | coordinates=source | bonds=not-provided | license=CC-BY-4.0 | source=colabfit/OMol25_neutral_validation
O 1.089034 -0.360228 0.068828
C 2.322125 -0.186355 0.034273
C 2.969938 1.08973 0.013924
C 2.188119 2.309043 0.03603
N 2.724138 3.521573 -0.006422
N 1.698831 4.354947 0.037756
N 0.581186 3.690012 0.106727
N 0.846014 2.383356 0.10887
C 4.348962 1.147337 -0.019308
N 5.129242 0.052973 -0.028717
C 4.543087 -1.105806 -0.008254
S 5.411975 -2.599315 -0.000511
C 3.916406 -3.488699 0.043631
C 3.7775 -4.86885 0.076654
C 2.497078 -5.399508 0.103614
C 1.384043 -4.563513 0.096183
C 1.518343 -3.183063 0.068142
C 2.799584 -2.6435 0.04416
N 3.179787 -1.287554 0.018308
Li -0.159264 0.878985 0.174068
H 4.866198 2.103093 -0.031582
H 4.651035 -5.509217 0.082823
H 2.362543 -6.473768 0.131789
H 0.391375 -4.998574 0.113741
H 0.634122 -2.558799 0.063873
