36
OMol25 neutral-validation row=23177 | collection=neutral-validation | formula=C15H17IO2S | configuration_id=CO_5202416872435569434214486 | property_id=PO_2986054893301970639342957 | method=ωB97M-V | charge=0 | multiplicity=1 | charge_source=record | data_id=orbnet_denali | energy_eV=-38862.3888061 | max_force_eV_per_A=0.473840171238 | homo_lumo_gap_eV=9.21241473855 | coordinates=source | bonds=not-provided | license=CC-BY-4.0 | source=colabfit/OMol25_neutral_validation
C -1.391959 -1.937356 -2.685562
O -1.51872 -1.56529 -1.31222
C -0.882895 -0.44725 -0.952881
O -0.243987 0.219349 -1.728407
C -1.080791 -0.155664 0.524361
C -2.275782 0.81788 0.742487
C -2.543684 1.741801 -0.448582
C -1.457181 2.83123 -0.424873
C -0.704406 2.722352 0.913149
C 0.539114 1.820094 0.799982
C 0.228095 0.362491 1.172009
C 1.362096 -0.605142 0.904493
C 2.210008 -0.506711 -0.195499
C 3.214528 -1.440906 -0.402087
C 3.391802 -2.497084 0.483097
I 4.918935 -3.92008 0.162842
C 2.548339 -2.604652 1.5826
C 1.546855 -1.668073 1.788198
S -1.904598 1.996338 2.073075
H -1.807928 -1.154891 -3.326215
H -1.945882 -2.866325 -2.814959
H -0.33812 -2.084964 -2.937047
H -1.331735 -1.107477 1.007272
H -3.166859 0.241371 0.999842
H -3.52808 2.196523 -0.30873
H -2.557902 1.202958 -1.397739
H -0.767174 2.705851 -1.262619
H -1.915847 3.819418 -0.511061
H -0.412773 3.71083 1.27554
H 0.933797 1.886204 -0.215937
H 1.315324 2.180391 1.482067
H 0.039617 0.346097 2.254603
H 2.09272 0.29582 -0.913028
H 3.862995 -1.345284 -1.264859
H 2.672631 -3.421995 2.282974
H 0.899446 -1.767856 2.653714
