19
OMol25 neutral-validation row=20999 | collection=neutral-validation | formula=C7H7FO2S2 | configuration_id=CO_1255063734993839049219217 | property_id=PO_2484619725850126757924899 | method=ωB97M-V | charge=0 | multiplicity=1 | charge_source=record | data_id=ani2x | energy_eV=-35839.8327564 | max_force_eV_per_A=18.7928243764 | homo_lumo_gap_eV=5.89790465247 | coordinates=source | bonds=not-provided | license=CC-BY-4.0 | source=colabfit/OMol25_neutral_validation
C -0.21671 1.929598 0.149222
C 0.988838 1.042393 -0.395656
C 2.040783 0.484169 -0.44929
C 3.478269 -0.029628 -0.314459
C -1.442483 -0.616907 -0.744238
C -0.523081 -1.224761 0.291817
C 0.862184 -1.507892 -0.161032
H -1.551319 -0.081197 1.403995
H -0.86704 2.737679 -0.637829
H 0.13841 2.566637 1.067698
H 4.024495 0.299428 -1.179224
H 3.340159 -1.120149 -0.243333
H -0.946167 -0.462312 -1.672176
H 1.512993 -2.200551 0.502895
O -0.85516 -1.578843 1.42241
O 1.214988 -0.858163 -1.132478
F 4.027072 0.457151 0.840295
S -1.817861 0.930014 0.377713
S -2.925926 -0.106244 -0.339108
