39
OMol25 neutral-validation row=18958 | collection=neutral-validation | formula=C18H17N2OP | configuration_id=CO_1781041523380759895603281 | property_id=PO_8637313920074014824102746 | method=ωB97M-V | charge=0 | multiplicity=1 | charge_source=record | data_id=geom_orca6 | energy_eV=-33260.4303536 | max_force_eV_per_A=0.869371047713 | homo_lumo_gap_eV=8.71284090253 | coordinates=source | bonds=not-provided | license=CC-BY-4.0 | source=colabfit/OMol25_neutral_validation
N -5.398722 -0.946396 0.369898
C -4.111173 -0.689861 -0.05617
C -3.077301 -0.561728 0.867868
C -1.766798 -0.382742 0.444276
C -1.48173 -0.324795 -0.915574
C -2.509381 -0.445417 -1.832327
C -3.813963 -0.626107 -1.418523
H -4.61071 -0.721599 -2.141245
H -2.286492 -0.396349 -2.887973
H -0.464211 -0.187343 -1.243163
N -0.753148 -0.27286 1.386783
P 0.865993 0.121209 1.222319
O 1.436289 0.314873 2.559411
C 0.943164 1.626433 0.187475
C 0.453117 2.777703 0.787079
C 0.466353 3.978037 0.10173
C 0.975674 4.027831 -1.186183
C 1.472215 2.880713 -1.782679
C 1.456734 1.677327 -1.098678
H 1.84486 0.781889 -1.564902
H 1.873322 2.92308 -2.784945
H 0.989179 4.963782 -1.725228
H 0.083755 4.874025 0.568263
H 0.074906 2.715274 1.798458
C 1.687696 -1.213958 0.292741
C 3.047534 -1.046581 0.064346
C 3.768174 -2.033567 -0.581811
C 3.129463 -3.193016 -0.993901
C 1.776616 -3.366007 -0.752903
C 1.051777 -2.378356 -0.107346
H -0.003546 -2.510375 0.081329
H 1.283375 -4.27409 -1.067655
H 3.68997 -3.9661 -1.498922
H 4.825286 -1.90347 -0.762228
H 3.525123 -0.138727 0.408743
H -1.030159 -0.299291 2.359716
H -3.299016 -0.607008 1.925714
H -6.133065 -0.744552 -0.288835
H -5.612726 -0.700606 1.322729
