44
OMol25 neutral-validation row=7655 | collection=neutral-validation | formula=C18H19BrN4OS | configuration_id=CO_1226933786876991467696786 | property_id=PO_1167013752822544879700718 | method=ωB97M-V | charge=0 | multiplicity=1 | charge_source=record | data_id=geom_orca6 | energy_eV=-107860.226571 | max_force_eV_per_A=0.488494875801 | homo_lumo_gap_eV=8.52976269736 | coordinates=source | bonds=not-provided | license=CC-BY-4.0 | source=colabfit/OMol25_neutral_validation
O -0.667824 1.860767 1.342068
C -0.234888 0.749073 1.161719
N -0.981451 -0.404489 1.330804
C -2.311317 -0.510745 1.675916
S -2.809088 -1.800076 2.572122
N -3.184278 0.426025 1.270383
N -2.991349 1.21654 0.140071
C -3.434532 2.579653 0.367363
C -2.913395 3.484988 -0.7576
C -2.444517 2.64188 -1.940996
C -3.46453 1.549028 -2.240537
H -3.148543 0.963009 -3.105163
H -4.420554 2.015023 -2.486387
C -3.644904 0.615717 -1.025976
C -3.033672 -0.744494 -1.238051
C -1.671125 -0.876668 -1.48661
N -1.048373 -2.038509 -1.565658
C -1.763665 -3.144065 -1.428576
C -3.131889 -3.136498 -1.213664
C -3.77235 -1.913137 -1.104241
H -4.83442 -1.867892 -0.905467
H -3.679052 -4.059833 -1.110315
H -1.208405 -4.070406 -1.490406
H -1.047167 -0.001485 -1.606529
H -4.726683 0.482557 -0.822504
H -1.483728 2.191357 -1.69465
H -2.309979 3.273216 -2.820222
H -3.705718 4.164768 -1.074697
H -2.079001 4.082316 -0.393677
H -3.023221 2.892091 1.326827
H -4.536315 2.622207 0.426126
H -4.142336 0.269157 1.592253
H -0.468684 -1.268113 1.458391
C 1.178435 0.479886 0.777831
C 1.557659 -0.623744 0.015415
C 2.885066 -0.801106 -0.32941
C 3.829943 0.118825 0.09616
C 3.469194 1.228589 0.843799
C 2.140323 1.407734 1.172983
H 1.82805 2.267864 1.745455
H 4.216571 1.940486 1.158136
Br 5.657004 -0.139726 -0.366728
H 3.183067 -1.648163 -0.927578
H 0.825266 -1.328004 -0.352846
