42
OMol25 neutral-validation row=9497 | collection=neutral-validation | formula=C14H20IN3O4 | configuration_id=CO_6787651509530587464231749 | property_id=PO_1204166142019192782664018 | method=ωB97M-V | charge=0 | multiplicity=1 | charge_source=record | data_id=spice | energy_eV=-35604.5796861 | max_force_eV_per_A=1.97329070889 | homo_lumo_gap_eV=9.12286206714 | coordinates=source | bonds=not-provided | license=CC-BY-4.0 | source=colabfit/OMol25_neutral_validation
O -1.941928 2.528551 -5.019738
O -1.250557 -0.429728 -1.741332
O 3.853449 -1.034694 4.182871
I 3.034708 2.896101 0.836656
O 3.603683 -2.423552 5.94425
C -2.338513 3.002475 -3.962087
C -1.153743 0.282568 -2.734951
C 3.279997 -1.974585 4.707951
C -0.504181 0.215374 1.61148
C 0.320423 1.299466 1.298348
C 0.061652 -1.003431 1.996846
C 2.268565 -0.055365 1.748307
C 1.709246 1.165646 1.362669
C 1.454622 -1.150911 2.076327
N -1.485267 -0.137395 -3.960564
N -1.813421 2.684201 -2.779753
N 0.835129 -2.639586 4.613234
C -3.479686 3.991594 -3.947855
C -1.98274 -1.474448 -4.276115
C -0.706436 1.738594 -2.59691
C 2.068324 -2.48384 2.450616
C 2.168791 -2.770516 3.966909
H 4.294621 -1.816531 6.252404
H -1.583471 0.313588 1.546257
H -0.113899 2.247271 0.99913
H -0.588019 -1.839914 2.233554
H 3.349576 -0.143297 1.795949
H -1.453618 0.554334 -4.702394
H -2.208217 3.10984 -1.957128
H 0.161049 -3.293063 4.218157
H 0.911163 -2.756469 5.625832
H -3.838943 4.132674 -4.966409
H -4.285676 3.603992 -3.327847
H -3.129256 4.942392 -3.550456
H -2.155998 -1.564702 -5.349155
H -2.919371 -1.653374 -3.745317
H -1.25453 -2.224764 -3.963269
H -0.269482 1.870285 -1.607546
H 0.066114 1.936561 -3.340548
H 3.068532 -2.554203 2.01177
H 1.468065 -3.2745 1.99127
H 2.479244 -3.81664 4.058589
