15
OMol25 neutral-validation row=21277 | collection=neutral-validation | formula=C4H4F6O | configuration_id=CO_2776803268190243431975818 | property_id=PO_2546340686030409765563274 | method=ωB97M-V | charge=0 | multiplicity=1 | charge_source=record | data_id=geom_orca6 | energy_eV=-22565.7929004 | max_force_eV_per_A=0.348107502159 | homo_lumo_gap_eV=11.9930374308 | coordinates=source | bonds=not-provided | license=CC-BY-4.0 | source=colabfit/OMol25_neutral_validation
F -1.345275 -0.943965 0.904076
C -1.848572 -0.087364 0.002815
F -1.600706 -0.578731 -1.206072
F -3.180341 -0.097823 0.174449
C -1.314913 1.341684 0.196352
O 0.030428 1.510787 -0.141872
C 0.995127 0.975669 0.736477
H 1.683257 1.7786 1.029105
C 1.837529 -0.09489 0.030589
F 2.508673 0.400196 -1.01046
F 2.748853 -0.595678 0.880583
F 1.113692 -1.120284 -0.415031
H 0.557787 0.522908 1.631471
H -1.524332 1.629292 1.236273
H -1.87345 1.990775 -0.483802
