51
Lattice="8.33260373 0.00000000 0.00000000 -0.45465438 8.51491832 0.00000000 2.12853538 0.56383274 8.03445005" Properties=species:S:1:pos:R:3 pbc="T T T" image=0 path_id=mp-760344_10_4_0_1_0 chemical_system=C-Co-Li-Na-O-P source=z1_nebdft2k_barriers.lock.json
Li 5.88624383 2.97297655 4.48061997
Li 9.35223011 6.38172691 7.57961984
Li 8.59943216 4.32345677 3.27268861
Li 5.50313582 4.59348777 7.29163301
Li 1.37888531 7.61369797 4.59475737
Li 4.51148780 7.34181610 0.56096530
Li 0.67937850 2.66076714 0.44511657
C 7.10933562 5.72912336 5.22992081
C 1.88295216 5.43651028 1.20611557
C 5.71410587 4.70801206 1.68945202
C 2.62040832 4.97918038 5.70300530
O 5.27990044 5.90569722 1.90740255
O 2.16823336 6.17064463 5.92792170
O 7.29346746 4.52239000 4.80162035
O 2.06205365 4.22727737 0.78405788
O 6.32950823 6.00238781 6.22880382
O 1.10631995 5.72366460 2.20429958
O 6.49096251 4.41439416 0.69283473
O 3.40550790 4.70847341 4.70732001
O 7.72537283 6.72729440 4.64122059
O 2.49711718 6.43100658 0.61322137
O 5.36430284 3.73129035 2.49085627
O 2.27967979 3.99534952 6.50150912
O 2.99082884 7.82822959 3.13313021
O 8.21871566 8.11481979 7.15810848
O 8.01622333 2.51228586 2.38419895
O 4.92920177 2.76809769 6.38847244
O 5.06562045 7.86548756 4.42906290
O -0.16521414 7.57880897 0.42041867
O 1.47264209 2.67931057 4.04594819
O 4.57234901 2.38611454 0.03397769
O 0.84202066 0.33422786 3.15453399
O 6.07165503 0.59715198 7.18844657
O 4.34948411 1.60212390 3.92706243
O 9.57673045 1.88085639 7.95473224
O 5.52329101 0.35087135 2.07594120
O 2.42958252 0.62490289 6.10748362
O 7.61272148 1.56104903 4.71818259
O 2.36861021 1.27275011 0.69093860
Na 6.96530046 7.41284070 2.51593983
Na 3.86702597 7.67293335 6.51884746
Na 8.41090673 3.16454213 6.35617395
Na 3.16584663 2.87929213 2.34082899
P 4.25278612 8.71095904 3.39686103
P 9.48233509 8.99214646 7.42614577
P 8.66021434 1.72774643 3.57157819
P 5.55863504 1.99669685 7.59235444
Co 1.50339813 7.95213469 1.64404934
Co 3.11565902 2.44330027 5.34335118
Co 6.71949516 8.27077579 5.66746090
Co 6.21124473 2.20095317 1.34069261
51
Lattice="8.33260373 0.00000000 0.00000000 -0.45465438 8.51491832 0.00000000 2.12853538 0.56383274 8.03445005" Properties=species:S:1:pos:R:3 pbc="T T T" image=1 path_id=mp-760344_10_4_0_1_0 chemical_system=C-Co-Li-Na-O-P source=z1_nebdft2k_barriers.lock.json
Li 5.32902624 3.77978294 4.49224753
Li 9.35223011 6.38172691 7.57961984
Li 8.59943216 4.32345677 3.27268861
Li 5.50313582 4.59348777 7.29163301
Li 1.37888531 7.61369797 4.59475737
Li 4.51148780 7.34181610 0.56096530
Li 0.67937850 2.66076714 0.44511657
C 7.10933562 5.72912336 5.22992081
C 1.88295216 5.43651028 1.20611557
C 5.71410587 4.70801206 1.68945202
C 2.62040832 4.97918038 5.70300530
O 5.27990044 5.90569722 1.90740255
O 2.16823336 6.17064463 5.92792170
O 7.29346746 4.52239000 4.80162035
O 2.06205365 4.22727737 0.78405788
O 6.32950823 6.00238781 6.22880382
O 1.10631995 5.72366460 2.20429958
O 6.49096251 4.41439416 0.69283473
O 3.40550790 4.70847341 4.70732001
O 7.72537283 6.72729440 4.64122059
O 2.49711718 6.43100658 0.61322137
O 5.36430284 3.73129035 2.49085627
O 2.27967979 3.99534952 6.50150912
O 2.99082884 7.82822959 3.13313021
O 8.21871566 8.11481979 7.15810848
O 8.01622333 2.51228586 2.38419895
O 4.92920177 2.76809769 6.38847244
O 5.06562045 7.86548756 4.42906290
O -0.16521414 7.57880897 0.42041867
O 1.47264209 2.67931057 4.04594819
O 4.57234901 2.38611454 0.03397769
O 0.84202066 0.33422786 3.15453399
O 6.07165503 0.59715198 7.18844657
O 4.34948411 1.60212390 3.92706243
O 9.57673045 1.88085639 7.95473224
O 5.52329101 0.35087135 2.07594120
O 2.42958252 0.62490289 6.10748362
O 7.61272148 1.56104903 4.71818259
O 2.36861021 1.27275011 0.69093860
Na 6.96530046 7.41284070 2.51593983
Na 3.86702597 7.67293335 6.51884746
Na 8.41090673 3.16454213 6.35617395
Na 3.16584663 2.87929213 2.34082899
P 4.25278612 8.71095904 3.39686103
P 9.48233509 8.99214646 7.42614577
P 8.66021434 1.72774643 3.57157819
P 5.55863504 1.99669685 7.59235444
Co 1.50339813 7.95213469 1.64404934
Co 3.11565902 2.44330027 5.34335118
Co 6.71949516 8.27077579 5.66746090
Co 6.21124473 2.20095317 1.34069261
51
Lattice="8.33260373 0.00000000 0.00000000 -0.45465438 8.51491832 0.00000000 2.12853538 0.56383274 8.03445005" Properties=species:S:1:pos:R:3 pbc="T T T" image=2 path_id=mp-760344_10_4_0_1_0 chemical_system=C-Co-Li-Na-O-P source=z1_nebdft2k_barriers.lock.json
Li 5.23245198 4.72685102 4.22240532
Li 9.35223011 6.38172691 7.57961984
Li 8.59943216 4.32345677 3.27268861
Li 5.50313582 4.59348777 7.29163301
Li 1.37888531 7.61369797 4.59475737
Li 4.51148780 7.34181610 0.56096530
Li 0.67937850 2.66076714 0.44511657
C 7.10933562 5.72912336 5.22992081
C 1.88295216 5.43651028 1.20611557
C 5.71410587 4.70801206 1.68945202
C 2.62040832 4.97918038 5.70300530
O 5.27990044 5.90569722 1.90740255
O 2.16823336 6.17064463 5.92792170
O 7.29346746 4.52239000 4.80162035
O 2.06205365 4.22727737 0.78405788
O 6.32950823 6.00238781 6.22880382
O 1.10631995 5.72366460 2.20429958
O 6.49096251 4.41439416 0.69283473
O 3.40550790 4.70847341 4.70732001
O 7.72537283 6.72729440 4.64122059
O 2.49711718 6.43100658 0.61322137
O 5.36430284 3.73129035 2.49085627
O 2.27967979 3.99534952 6.50150912
O 2.99082884 7.82822959 3.13313021
O 8.21871566 8.11481979 7.15810848
O 8.01622333 2.51228586 2.38419895
O 4.92920177 2.76809769 6.38847244
O 5.06562045 7.86548756 4.42906290
O -0.16521414 7.57880897 0.42041867
O 1.47264209 2.67931057 4.04594819
O 4.57234901 2.38611454 0.03397769
O 0.84202066 0.33422786 3.15453399
O 6.07165503 0.59715198 7.18844657
O 4.34948411 1.60212390 3.92706243
O 9.57673045 1.88085639 7.95473224
O 5.52329101 0.35087135 2.07594120
O 2.42958252 0.62490289 6.10748362
O 7.61272148 1.56104903 4.71818259
O 2.36861021 1.27275011 0.69093860
Na 6.96530046 7.41284070 2.51593983
Na 3.86702597 7.67293335 6.51884746
Na 8.41090673 3.16454213 6.35617395
Na 3.16584663 2.87929213 2.34082899
P 4.25278612 8.71095904 3.39686103
P 9.48233509 8.99214646 7.42614577
P 8.66021434 1.72774643 3.57157819
P 5.55863504 1.99669685 7.59235444
Co 1.50339813 7.95213469 1.64404934
Co 3.11565902 2.44330027 5.34335118
Co 6.71949516 8.27077579 5.66746090
Co 6.21124473 2.20095317 1.34069261
51
Lattice="8.33260373 0.00000000 0.00000000 -0.45465438 8.51491832 0.00000000 2.12853538 0.56383274 8.03445005" Properties=species:S:1:pos:R:3 pbc="T T T" image=3 path_id=mp-760344_10_4_0_1_0 chemical_system=C-Co-Li-Na-O-P source=z1_nebdft2k_barriers.lock.json
Li 4.93362046 5.64602797 3.96240506
Li 9.35223011 6.38172691 7.57961984
Li 8.59943216 4.32345677 3.27268861
Li 5.50313582 4.59348777 7.29163301
Li 1.37888531 7.61369797 4.59475737
Li 4.51148780 7.34181610 0.56096530
Li 0.67937850 2.66076714 0.44511657
C 7.10933562 5.72912336 5.22992081
C 1.88295216 5.43651028 1.20611557
C 5.71410587 4.70801206 1.68945202
C 2.62040832 4.97918038 5.70300530
O 5.27990044 5.90569722 1.90740255
O 2.16823336 6.17064463 5.92792170
O 7.29346746 4.52239000 4.80162035
O 2.06205365 4.22727737 0.78405788
O 6.32950823 6.00238781 6.22880382
O 1.10631995 5.72366460 2.20429958
O 6.49096251 4.41439416 0.69283473
O 3.40550790 4.70847341 4.70732001
O 7.72537283 6.72729440 4.64122059
O 2.49711718 6.43100658 0.61322137
O 5.36430284 3.73129035 2.49085627
O 2.27967979 3.99534952 6.50150912
O 2.99082884 7.82822959 3.13313021
O 8.21871566 8.11481979 7.15810848
O 8.01622333 2.51228586 2.38419895
O 4.92920177 2.76809769 6.38847244
O 5.06562045 7.86548756 4.42906290
O -0.16521414 7.57880897 0.42041867
O 1.47264209 2.67931057 4.04594819
O 4.57234901 2.38611454 0.03397769
O 0.84202066 0.33422786 3.15453399
O 6.07165503 0.59715198 7.18844657
O 4.34948411 1.60212390 3.92706243
O 9.57673045 1.88085639 7.95473224
O 5.52329101 0.35087135 2.07594120
O 2.42958252 0.62490289 6.10748362
O 7.61272148 1.56104903 4.71818259
O 2.36861021 1.27275011 0.69093860
Na 6.96530046 7.41284070 2.51593983
Na 3.86702597 7.67293335 6.51884746
Na 8.41090673 3.16454213 6.35617395
Na 3.16584663 2.87929213 2.34082899
P 4.25278612 8.71095904 3.39686103
P 9.48233509 8.99214646 7.42614577
P 8.66021434 1.72774643 3.57157819
P 5.55863504 1.99669685 7.59235444
Co 1.50339813 7.95213469 1.64404934
Co 3.11565902 2.44330027 5.34335118
Co 6.71949516 8.27077579 5.66746090
Co 6.21124473 2.20095317 1.34069261
51
Lattice="8.33260373 0.00000000 0.00000000 -0.45465438 8.51491832 0.00000000 2.12853538 0.56383274 8.03445005" Properties=species:S:1:pos:R:3 pbc="T T T" image=4 path_id=mp-760344_10_4_0_1_0 chemical_system=C-Co-Li-Na-O-P source=z1_nebdft2k_barriers.lock.json
Li 4.12024090 6.10577450 3.55383009
Li 9.35223011 6.38172691 7.57961984
Li 8.59943216 4.32345677 3.27268861
Li 5.50313582 4.59348777 7.29163301
Li 1.37888531 7.61369797 4.59475737
Li 4.51148780 7.34181610 0.56096530
Li 0.67937850 2.66076714 0.44511657
C 7.10933562 5.72912336 5.22992081
C 1.88295216 5.43651028 1.20611557
C 5.71410587 4.70801206 1.68945202
C 2.62040832 4.97918038 5.70300530
O 5.27990044 5.90569722 1.90740255
O 2.16823336 6.17064463 5.92792170
O 7.29346746 4.52239000 4.80162035
O 2.06205365 4.22727737 0.78405788
O 6.32950823 6.00238781 6.22880382
O 1.10631995 5.72366460 2.20429958
O 6.49096251 4.41439416 0.69283473
O 3.40550790 4.70847341 4.70732001
O 7.72537283 6.72729440 4.64122059
O 2.49711718 6.43100658 0.61322137
O 5.36430284 3.73129035 2.49085627
O 2.27967979 3.99534952 6.50150912
O 2.99082884 7.82822959 3.13313021
O 8.21871566 8.11481979 7.15810848
O 8.01622333 2.51228586 2.38419895
O 4.92920177 2.76809769 6.38847244
O 5.06562045 7.86548756 4.42906290
O -0.16521414 7.57880897 0.42041867
O 1.47264209 2.67931057 4.04594819
O 4.57234901 2.38611454 0.03397769
O 0.84202066 0.33422786 3.15453399
O 6.07165503 0.59715198 7.18844657
O 4.34948411 1.60212390 3.92706243
O 9.57673045 1.88085639 7.95473224
O 5.52329101 0.35087135 2.07594120
O 2.42958252 0.62490289 6.10748362
O 7.61272148 1.56104903 4.71818259
O 2.36861021 1.27275011 0.69093860
Na 6.96530046 7.41284070 2.51593983
Na 3.86702597 7.67293335 6.51884746
Na 8.41090673 3.16454213 6.35617395
Na 3.16584663 2.87929213 2.34082899
P 4.25278612 8.71095904 3.39686103
P 9.48233509 8.99214646 7.42614577
P 8.66021434 1.72774643 3.57157819
P 5.55863504 1.99669685 7.59235444
Co 1.50339813 7.95213469 1.64404934
Co 3.11565902 2.44330027 5.34335118
Co 6.71949516 8.27077579 5.66746090
Co 6.21124473 2.20095317 1.34069261
