95
Lattice="10.12658400 0.00000000 0.00000000 -5.06132800 8.77531200 0.00000000 -0.11502400 -0.06113500 11.50252700" Properties=species:S:1:pos:R:3 pbc="T T T" image=0 path_id=mp-756912_1_1_1_0_0 chemical_system=B-Li-O-Zn source=z1_nebdft2k_barriers.lock.json
Li -0.05653000 4.35708850 5.75126350
Li -0.11751272 4.45978449 3.62826510
Li -0.95301059 3.19041748 1.11461787
Li -0.92753270 3.11447147 8.26707320
Li 2.41315128 0.07212849 3.62826510
Li 2.47413400 -0.03056750 5.75126350
Li -3.48367459 7.57807348 1.11461787
Li -3.45819670 7.50212747 8.26707320
Li 4.94577928 4.45978449 3.62826510
Li 4.11028141 3.19041748 1.11461787
Li 4.13575930 3.11447147 8.26707320
Li 7.47644328 0.07212849 3.62826510
Li 7.53742600 -0.03056750 5.75126350
Li 1.57961741 7.57807348 1.11461787
Li 1.60509530 7.50212747 8.26707320
B 2.38523988 3.01281232 10.45420969
B -2.58641983 5.93327427 4.69635524
B 1.63705836 1.69553560 1.76654659
B 6.74107520 4.50622769 7.61975699
B -0.14542412 7.40046831 10.45420969
B -0.05575583 1.54561827 4.69635524
B -0.89360564 6.08319160 1.76654659
B 9.27173920 0.11857169 7.61975699
B 7.44853188 3.01281232 10.45420969
B 2.47687217 5.93327427 4.69635524
B 6.70035036 1.69553560 1.76654659
B 1.67778320 4.50622769 7.61975699
B 4.91786788 7.40046831 10.45420969
B 5.00753617 1.54561827 4.69635524
B 4.16968636 6.08319160 1.76654659
B 4.20844720 0.11857169 7.61975699
O 1.68868903 4.13524217 10.90712169
O -1.19331057 5.78637876 4.80141933
O -0.25233260 4.84174706 1.81299380
O 0.28285619 4.45325983 7.56693738
O 2.36402333 2.84191456 2.09373597
O -2.76742764 5.69541738 7.97907293
O 1.69472532 1.91154946 9.96727322
O 6.71982113 4.80146548 4.60302374
O -1.29768000 3.02150670 10.46861085
O -0.62487996 2.82307921 4.68823446
O 0.28936726 1.75754385 1.43267424
O 7.48257372 3.36738984 7.29198098
O -0.84197497 8.52289817 10.90712169
O 1.33735343 1.39872276 4.80141933
O 2.27833140 0.45409106 1.81299380
O 2.81352019 0.06560383 7.56693738
O -0.16664067 7.22957056 2.09373597
O -0.23676364 1.30776138 7.97907293
O -0.83593868 6.29920546 9.96727322
O 9.25048513 0.41380948 4.60302374
O -3.82834400 7.40916270 10.46861085
O -3.15554396 7.21073521 4.68823446
O -2.24129674 6.14519985 1.43267424
O 4.95190972 7.75504584 7.29198098
O 6.75198103 4.13524217 10.90712169
O 3.86998143 5.78637876 4.80141933
O 4.81095940 4.84174706 1.81299380
O 5.34614819 4.45325983 7.56693738
O 7.42731533 2.84191456 2.09373597
O 2.29586436 5.69541738 7.97907293
O 6.75801732 1.91154946 9.96727322
O 1.65652913 4.80146548 4.60302374
O 3.76561200 3.02150670 10.46861085
O 4.43841204 2.82307921 4.68823446
O 5.35265926 1.75754385 1.43267424
O 2.41928172 3.36738984 7.29198098
O 4.22131703 8.52289817 10.90712169
O 6.40064543 1.39872276 4.80141933
O 7.34162340 0.45409106 1.81299380
O 7.87681219 0.06560383 7.56693738
O 4.89665133 7.22957056 2.09373597
O 4.82652836 1.30776138 7.97907293
O 4.22735332 6.29920546 9.96727322
O 4.18719313 0.41380948 4.60302374
O 1.23494800 7.40916270 10.46861085
O 1.90774804 7.21073521 4.68823446
O 2.82199526 6.14519985 1.43267424
O -0.11138228 7.75504584 7.29198098
Zn 1.65024893 4.54726080 1.41177415
Zn -2.66177456 5.86773833 10.42097889
Zn 2.47976928 3.01010621 4.69919637
Zn 1.70796888 1.64379480 7.96248628
Zn 4.18091293 0.15960480 1.41177415
Zn -0.13111056 1.48008233 10.42097889
Zn -0.05089472 7.39776221 4.69919637
Zn -0.82269512 6.03145080 7.96248628
Zn 6.71354093 4.54726080 1.41177415
Zn 2.40151744 5.86773833 10.42097889
Zn 7.54306128 3.01010621 4.69919637
Zn 6.77126088 1.64379480 7.96248628
Zn 9.24420493 0.15960480 1.41177415
Zn 4.93218144 1.48008233 10.42097889
Zn 5.01239728 7.39776221 4.69919637
Zn 4.24059688 6.03145080 7.96248628
95
Lattice="10.12658400 0.00000000 0.00000000 -5.06132800 8.77531200 0.00000000 -0.11502400 -0.06113500 11.50252700" Properties=species:S:1:pos:R:3 pbc="T T T" image=1 path_id=mp-756912_1_1_1_0_0 chemical_system=B-Li-O-Zn source=z1_nebdft2k_barriers.lock.json
Li 0.40772103 5.63504004 5.98396324
Li -0.11751272 4.45978449 3.62826510
Li -0.95301059 3.19041748 1.11461787
Li -0.92753270 3.11447147 8.26707320
Li 2.41315128 0.07212849 3.62826510
Li 2.47413400 -0.03056750 5.75126350
Li -3.48367459 7.57807348 1.11461787
Li -3.45819670 7.50212747 8.26707320
Li 4.94577928 4.45978449 3.62826510
Li 4.11028141 3.19041748 1.11461787
Li 4.13575930 3.11447147 8.26707320
Li 7.47644328 0.07212849 3.62826510
Li 7.53742600 -0.03056750 5.75126350
Li 1.57961741 7.57807348 1.11461787
Li 1.60509530 7.50212747 8.26707320
B 2.38523988 3.01281232 10.45420969
B -2.58641983 5.93327427 4.69635524
B 1.63705836 1.69553560 1.76654659
B 6.74107520 4.50622769 7.61975699
B -0.14542412 7.40046831 10.45420969
B -0.05575583 1.54561827 4.69635524
B -0.89360564 6.08319160 1.76654659
B 9.27173920 0.11857169 7.61975699
B 7.44853188 3.01281232 10.45420969
B 2.47687217 5.93327427 4.69635524
B 6.70035036 1.69553560 1.76654659
B 1.67778320 4.50622769 7.61975699
B 4.91786788 7.40046831 10.45420969
B 5.00753617 1.54561827 4.69635524
B 4.16968636 6.08319160 1.76654659
B 4.20844720 0.11857169 7.61975699
O 1.68868903 4.13524217 10.90712169
O -1.19331057 5.78637876 4.80141933
O -0.25233260 4.84174706 1.81299380
O 0.28285619 4.45325983 7.56693738
O 2.36402333 2.84191456 2.09373597
O -2.76742764 5.69541738 7.97907293
O 1.69472532 1.91154946 9.96727322
O 6.71982113 4.80146548 4.60302374
O -1.29768000 3.02150670 10.46861085
O -0.62487996 2.82307921 4.68823446
O 0.28936726 1.75754385 1.43267424
O 7.48257372 3.36738984 7.29198098
O -0.84197497 8.52289817 10.90712169
O 1.33735343 1.39872276 4.80141933
O 2.27833140 0.45409106 1.81299380
O 2.81352019 0.06560383 7.56693738
O -0.16664067 7.22957056 2.09373597
O -0.23676364 1.30776138 7.97907293
O -0.83593868 6.29920546 9.96727322
O 9.25048513 0.41380948 4.60302374
O -3.82834400 7.40916270 10.46861085
O -3.15554396 7.21073521 4.68823446
O -2.24129674 6.14519985 1.43267424
O 4.95190972 7.75504584 7.29198098
O 6.75198103 4.13524217 10.90712169
O 3.86998143 5.78637876 4.80141933
O 4.81095940 4.84174706 1.81299380
O 5.34614819 4.45325983 7.56693738
O 7.42731533 2.84191456 2.09373597
O 2.29586436 5.69541738 7.97907293
O 6.75801732 1.91154946 9.96727322
O 1.65652913 4.80146548 4.60302374
O 3.76561200 3.02150670 10.46861085
O 4.43841204 2.82307921 4.68823446
O 5.35265926 1.75754385 1.43267424
O 2.41928172 3.36738984 7.29198098
O 4.22131703 8.52289817 10.90712169
O 6.40064543 1.39872276 4.80141933
O 7.34162340 0.45409106 1.81299380
O 7.87681219 0.06560383 7.56693738
O 4.89665133 7.22957056 2.09373597
O 4.82652836 1.30776138 7.97907293
O 4.22735332 6.29920546 9.96727322
O 4.18719313 0.41380948 4.60302374
O 1.23494800 7.40916270 10.46861085
O 1.90774804 7.21073521 4.68823446
O 2.82199526 6.14519985 1.43267424
O -0.11138228 7.75504584 7.29198098
Zn 1.65024893 4.54726080 1.41177415
Zn -2.66177456 5.86773833 10.42097889
Zn 2.47976928 3.01010621 4.69919637
Zn 1.70796888 1.64379480 7.96248628
Zn 4.18091293 0.15960480 1.41177415
Zn -0.13111056 1.48008233 10.42097889
Zn -0.05089472 7.39776221 4.69919637
Zn -0.82269512 6.03145080 7.96248628
Zn 6.71354093 4.54726080 1.41177415
Zn 2.40151744 5.86773833 10.42097889
Zn 7.54306128 3.01010621 4.69919637
Zn 6.77126088 1.64379480 7.96248628
Zn 9.24420493 0.15960480 1.41177415
Zn 4.93218144 1.48008233 10.42097889
Zn 5.01239728 7.39776221 4.69919637
Zn 4.24059688 6.03145080 7.96248628
95
Lattice="10.12658400 0.00000000 0.00000000 -5.06132800 8.77531200 0.00000000 -0.11502400 -0.06113500 11.50252700" Properties=species:S:1:pos:R:3 pbc="T T T" image=2 path_id=mp-756912_1_1_1_0_0 chemical_system=B-Li-O-Zn source=z1_nebdft2k_barriers.lock.json
Li 1.31169587 6.54814562 6.48292006
Li -0.11751272 4.45978449 3.62826510
Li -0.95301059 3.19041748 1.11461787
Li -0.92753270 3.11447147 8.26707320
Li 2.41315128 0.07212849 3.62826510
Li 2.47413400 -0.03056750 5.75126350
Li -3.48367459 7.57807348 1.11461787
Li -3.45819670 7.50212747 8.26707320
Li 4.94577928 4.45978449 3.62826510
Li 4.11028141 3.19041748 1.11461787
Li 4.13575930 3.11447147 8.26707320
Li 7.47644328 0.07212849 3.62826510
Li 7.53742600 -0.03056750 5.75126350
Li 1.57961741 7.57807348 1.11461787
Li 1.60509530 7.50212747 8.26707320
B 2.38523988 3.01281232 10.45420969
B -2.58641983 5.93327427 4.69635524
B 1.63705836 1.69553560 1.76654659
B 6.74107520 4.50622769 7.61975699
B -0.14542412 7.40046831 10.45420969
B -0.05575583 1.54561827 4.69635524
B -0.89360564 6.08319160 1.76654659
B 9.27173920 0.11857169 7.61975699
B 7.44853188 3.01281232 10.45420969
B 2.47687217 5.93327427 4.69635524
B 6.70035036 1.69553560 1.76654659
B 1.67778320 4.50622769 7.61975699
B 4.91786788 7.40046831 10.45420969
B 5.00753617 1.54561827 4.69635524
B 4.16968636 6.08319160 1.76654659
B 4.20844720 0.11857169 7.61975699
O 1.68868903 4.13524217 10.90712169
O -1.19331057 5.78637876 4.80141933
O -0.25233260 4.84174706 1.81299380
O 0.28285619 4.45325983 7.56693738
O 2.36402333 2.84191456 2.09373597
O -2.76742764 5.69541738 7.97907293
O 1.69472532 1.91154946 9.96727322
O 6.71982113 4.80146548 4.60302374
O -1.29768000 3.02150670 10.46861085
O -0.62487996 2.82307921 4.68823446
O 0.28936726 1.75754385 1.43267424
O 7.48257372 3.36738984 7.29198098
O -0.84197497 8.52289817 10.90712169
O 1.33735343 1.39872276 4.80141933
O 2.27833140 0.45409106 1.81299380
O 2.81352019 0.06560383 7.56693738
O -0.16664067 7.22957056 2.09373597
O -0.23676364 1.30776138 7.97907293
O -0.83593868 6.29920546 9.96727322
O 9.25048513 0.41380948 4.60302374
O -3.82834400 7.40916270 10.46861085
O -3.15554396 7.21073521 4.68823446
O -2.24129674 6.14519985 1.43267424
O 4.95190972 7.75504584 7.29198098
O 6.75198103 4.13524217 10.90712169
O 3.86998143 5.78637876 4.80141933
O 4.81095940 4.84174706 1.81299380
O 5.34614819 4.45325983 7.56693738
O 7.42731533 2.84191456 2.09373597
O 2.29586436 5.69541738 7.97907293
O 6.75801732 1.91154946 9.96727322
O 1.65652913 4.80146548 4.60302374
O 3.76561200 3.02150670 10.46861085
O 4.43841204 2.82307921 4.68823446
O 5.35265926 1.75754385 1.43267424
O 2.41928172 3.36738984 7.29198098
O 4.22131703 8.52289817 10.90712169
O 6.40064543 1.39872276 4.80141933
O 7.34162340 0.45409106 1.81299380
O 7.87681219 0.06560383 7.56693738
O 4.89665133 7.22957056 2.09373597
O 4.82652836 1.30776138 7.97907293
O 4.22735332 6.29920546 9.96727322
O 4.18719313 0.41380948 4.60302374
O 1.23494800 7.40916270 10.46861085
O 1.90774804 7.21073521 4.68823446
O 2.82199526 6.14519985 1.43267424
O -0.11138228 7.75504584 7.29198098
Zn 1.65024893 4.54726080 1.41177415
Zn -2.66177456 5.86773833 10.42097889
Zn 2.47976928 3.01010621 4.69919637
Zn 1.70796888 1.64379480 7.96248628
Zn 4.18091293 0.15960480 1.41177415
Zn -0.13111056 1.48008233 10.42097889
Zn -0.05089472 7.39776221 4.69919637
Zn -0.82269512 6.03145080 7.96248628
Zn 6.71354093 4.54726080 1.41177415
Zn 2.40151744 5.86773833 10.42097889
Zn 7.54306128 3.01010621 4.69919637
Zn 6.77126088 1.64379480 7.96248628
Zn 9.24420493 0.15960480 1.41177415
Zn 4.93218144 1.48008233 10.42097889
Zn 5.01239728 7.39776221 4.69919637
Zn 4.24059688 6.03145080 7.96248628
95
Lattice="10.12658400 0.00000000 0.00000000 -5.06132800 8.77531200 0.00000000 -0.11502400 -0.06113500 11.50252700" Properties=species:S:1:pos:R:3 pbc="T T T" image=3 path_id=mp-756912_1_1_1_0_0 chemical_system=B-Li-O-Zn source=z1_nebdft2k_barriers.lock.json
Li 2.58071960 7.00198498 6.59113579
Li -0.11751272 4.45978449 3.62826510
Li -0.95301059 3.19041748 1.11461787
Li -0.92753270 3.11447147 8.26707320
Li 2.41315128 0.07212849 3.62826510
Li 2.47413400 -0.03056750 5.75126350
Li -3.48367459 7.57807348 1.11461787
Li -3.45819670 7.50212747 8.26707320
Li 4.94577928 4.45978449 3.62826510
Li 4.11028141 3.19041748 1.11461787
Li 4.13575930 3.11447147 8.26707320
Li 7.47644328 0.07212849 3.62826510
Li 7.53742600 -0.03056750 5.75126350
Li 1.57961741 7.57807348 1.11461787
Li 1.60509530 7.50212747 8.26707320
B 2.38523988 3.01281232 10.45420969
B -2.58641983 5.93327427 4.69635524
B 1.63705836 1.69553560 1.76654659
B 6.74107520 4.50622769 7.61975699
B -0.14542412 7.40046831 10.45420969
B -0.05575583 1.54561827 4.69635524
B -0.89360564 6.08319160 1.76654659
B 9.27173920 0.11857169 7.61975699
B 7.44853188 3.01281232 10.45420969
B 2.47687217 5.93327427 4.69635524
B 6.70035036 1.69553560 1.76654659
B 1.67778320 4.50622769 7.61975699
B 4.91786788 7.40046831 10.45420969
B 5.00753617 1.54561827 4.69635524
B 4.16968636 6.08319160 1.76654659
B 4.20844720 0.11857169 7.61975699
O 1.68868903 4.13524217 10.90712169
O -1.19331057 5.78637876 4.80141933
O -0.25233260 4.84174706 1.81299380
O 0.28285619 4.45325983 7.56693738
O 2.36402333 2.84191456 2.09373597
O -2.76742764 5.69541738 7.97907293
O 1.69472532 1.91154946 9.96727322
O 6.71982113 4.80146548 4.60302374
O -1.29768000 3.02150670 10.46861085
O -0.62487996 2.82307921 4.68823446
O 0.28936726 1.75754385 1.43267424
O 7.48257372 3.36738984 7.29198098
O -0.84197497 8.52289817 10.90712169
O 1.33735343 1.39872276 4.80141933
O 2.27833140 0.45409106 1.81299380
O 2.81352019 0.06560383 7.56693738
O -0.16664067 7.22957056 2.09373597
O -0.23676364 1.30776138 7.97907293
O -0.83593868 6.29920546 9.96727322
O 9.25048513 0.41380948 4.60302374
O -3.82834400 7.40916270 10.46861085
O -3.15554396 7.21073521 4.68823446
O -2.24129674 6.14519985 1.43267424
O 4.95190972 7.75504584 7.29198098
O 6.75198103 4.13524217 10.90712169
O 3.86998143 5.78637876 4.80141933
O 4.81095940 4.84174706 1.81299380
O 5.34614819 4.45325983 7.56693738
O 7.42731533 2.84191456 2.09373597
O 2.29586436 5.69541738 7.97907293
O 6.75801732 1.91154946 9.96727322
O 1.65652913 4.80146548 4.60302374
O 3.76561200 3.02150670 10.46861085
O 4.43841204 2.82307921 4.68823446
O 5.35265926 1.75754385 1.43267424
O 2.41928172 3.36738984 7.29198098
O 4.22131703 8.52289817 10.90712169
O 6.40064543 1.39872276 4.80141933
O 7.34162340 0.45409106 1.81299380
O 7.87681219 0.06560383 7.56693738
O 4.89665133 7.22957056 2.09373597
O 4.82652836 1.30776138 7.97907293
O 4.22735332 6.29920546 9.96727322
O 4.18719313 0.41380948 4.60302374
O 1.23494800 7.40916270 10.46861085
O 1.90774804 7.21073521 4.68823446
O 2.82199526 6.14519985 1.43267424
O -0.11138228 7.75504584 7.29198098
Zn 1.65024893 4.54726080 1.41177415
Zn -2.66177456 5.86773833 10.42097889
Zn 2.47976928 3.01010621 4.69919637
Zn 1.70796888 1.64379480 7.96248628
Zn 4.18091293 0.15960480 1.41177415
Zn -0.13111056 1.48008233 10.42097889
Zn -0.05089472 7.39776221 4.69919637
Zn -0.82269512 6.03145080 7.96248628
Zn 6.71354093 4.54726080 1.41177415
Zn 2.40151744 5.86773833 10.42097889
Zn 7.54306128 3.01010621 4.69919637
Zn 6.77126088 1.64379480 7.96248628
Zn 9.24420493 0.15960480 1.41177415
Zn 4.93218144 1.48008233 10.42097889
Zn 5.01239728 7.39776221 4.69919637
Zn 4.24059688 6.03145080 7.96248628
95
Lattice="10.12658400 0.00000000 0.00000000 -5.06132800 8.77531200 0.00000000 -0.11502400 -0.06113500 11.50252700" Properties=species:S:1:pos:R:3 pbc="T T T" image=4 path_id=mp-756912_1_1_1_0_0 chemical_system=B-Li-O-Zn source=z1_nebdft2k_barriers.lock.json
Li 3.62166156 6.09711352 6.55053391
Li -0.11751272 4.45978449 3.62826510
Li -0.95301059 3.19041748 1.11461787
Li -0.92753270 3.11447147 8.26707320
Li 2.41315128 0.07212849 3.62826510
Li 2.47413400 -0.03056750 5.75126350
Li -3.48367459 7.57807348 1.11461787
Li -3.45819670 7.50212747 8.26707320
Li 4.94577928 4.45978449 3.62826510
Li 4.11028141 3.19041748 1.11461787
Li 4.13575930 3.11447147 8.26707320
Li 7.47644328 0.07212849 3.62826510
Li 7.53742600 -0.03056750 5.75126350
Li 1.57961741 7.57807348 1.11461787
Li 1.60509530 7.50212747 8.26707320
B 2.38523988 3.01281232 10.45420969
B -2.58641983 5.93327427 4.69635524
B 1.63705836 1.69553560 1.76654659
B 6.74107520 4.50622769 7.61975699
B -0.14542412 7.40046831 10.45420969
B -0.05575583 1.54561827 4.69635524
B -0.89360564 6.08319160 1.76654659
B 9.27173920 0.11857169 7.61975699
B 7.44853188 3.01281232 10.45420969
B 2.47687217 5.93327427 4.69635524
B 6.70035036 1.69553560 1.76654659
B 1.67778320 4.50622769 7.61975699
B 4.91786788 7.40046831 10.45420969
B 5.00753617 1.54561827 4.69635524
B 4.16968636 6.08319160 1.76654659
B 4.20844720 0.11857169 7.61975699
O 1.68868903 4.13524217 10.90712169
O -1.19331057 5.78637876 4.80141933
O -0.25233260 4.84174706 1.81299380
O 0.28285619 4.45325983 7.56693738
O 2.36402333 2.84191456 2.09373597
O -2.76742764 5.69541738 7.97907293
O 1.69472532 1.91154946 9.96727322
O 6.71982113 4.80146548 4.60302374
O -1.29768000 3.02150670 10.46861085
O -0.62487996 2.82307921 4.68823446
O 0.28936726 1.75754385 1.43267424
O 7.48257372 3.36738984 7.29198098
O -0.84197497 8.52289817 10.90712169
O 1.33735343 1.39872276 4.80141933
O 2.27833140 0.45409106 1.81299380
O 2.81352019 0.06560383 7.56693738
O -0.16664067 7.22957056 2.09373597
O -0.23676364 1.30776138 7.97907293
O -0.83593868 6.29920546 9.96727322
O 9.25048513 0.41380948 4.60302374
O -3.82834400 7.40916270 10.46861085
O -3.15554396 7.21073521 4.68823446
O -2.24129674 6.14519985 1.43267424
O 4.95190972 7.75504584 7.29198098
O 6.75198103 4.13524217 10.90712169
O 3.86998143 5.78637876 4.80141933
O 4.81095940 4.84174706 1.81299380
O 5.34614819 4.45325983 7.56693738
O 7.42731533 2.84191456 2.09373597
O 2.29586436 5.69541738 7.97907293
O 6.75801732 1.91154946 9.96727322
O 1.65652913 4.80146548 4.60302374
O 3.76561200 3.02150670 10.46861085
O 4.43841204 2.82307921 4.68823446
O 5.35265926 1.75754385 1.43267424
O 2.41928172 3.36738984 7.29198098
O 4.22131703 8.52289817 10.90712169
O 6.40064543 1.39872276 4.80141933
O 7.34162340 0.45409106 1.81299380
O 7.87681219 0.06560383 7.56693738
O 4.89665133 7.22957056 2.09373597
O 4.82652836 1.30776138 7.97907293
O 4.22735332 6.29920546 9.96727322
O 4.18719313 0.41380948 4.60302374
O 1.23494800 7.40916270 10.46861085
O 1.90774804 7.21073521 4.68823446
O 2.82199526 6.14519985 1.43267424
O -0.11138228 7.75504584 7.29198098
Zn 1.65024893 4.54726080 1.41177415
Zn -2.66177456 5.86773833 10.42097889
Zn 2.47976928 3.01010621 4.69919637
Zn 1.70796888 1.64379480 7.96248628
Zn 4.18091293 0.15960480 1.41177415
Zn -0.13111056 1.48008233 10.42097889
Zn -0.05089472 7.39776221 4.69919637
Zn -0.82269512 6.03145080 7.96248628
Zn 6.71354093 4.54726080 1.41177415
Zn 2.40151744 5.86773833 10.42097889
Zn 7.54306128 3.01010621 4.69919637
Zn 6.77126088 1.64379480 7.96248628
Zn 9.24420493 0.15960480 1.41177415
Zn 4.93218144 1.48008233 10.42097889
Zn 5.01239728 7.39776221 4.69919637
Zn 4.24059688 6.03145080 7.96248628
95
Lattice="10.12658400 0.00000000 0.00000000 -5.06132800 8.77531200 0.00000000 -0.11502400 -0.06113500 11.50252700" Properties=species:S:1:pos:R:3 pbc="T T T" image=5 path_id=mp-756912_1_1_1_0_0 chemical_system=B-Li-O-Zn source=z1_nebdft2k_barriers.lock.json
Li 3.82310713 4.75001138 6.34655014
Li -0.11751272 4.45978449 3.62826510
Li -0.95301059 3.19041748 1.11461787
Li -0.92753270 3.11447147 8.26707320
Li 2.41315128 0.07212849 3.62826510
Li 2.47413400 -0.03056750 5.75126350
Li -3.48367459 7.57807348 1.11461787
Li -3.45819670 7.50212747 8.26707320
Li 4.94577928 4.45978449 3.62826510
Li 4.11028141 3.19041748 1.11461787
Li 4.13575930 3.11447147 8.26707320
Li 7.47644328 0.07212849 3.62826510
Li 7.53742600 -0.03056750 5.75126350
Li 1.57961741 7.57807348 1.11461787
Li 1.60509530 7.50212747 8.26707320
B 2.38523988 3.01281232 10.45420969
B -2.58641983 5.93327427 4.69635524
B 1.63705836 1.69553560 1.76654659
B 6.74107520 4.50622769 7.61975699
B -0.14542412 7.40046831 10.45420969
B -0.05575583 1.54561827 4.69635524
B -0.89360564 6.08319160 1.76654659
B 9.27173920 0.11857169 7.61975699
B 7.44853188 3.01281232 10.45420969
B 2.47687217 5.93327427 4.69635524
B 6.70035036 1.69553560 1.76654659
B 1.67778320 4.50622769 7.61975699
B 4.91786788 7.40046831 10.45420969
B 5.00753617 1.54561827 4.69635524
B 4.16968636 6.08319160 1.76654659
B 4.20844720 0.11857169 7.61975699
O 1.68868903 4.13524217 10.90712169
O -1.19331057 5.78637876 4.80141933
O -0.25233260 4.84174706 1.81299380
O 0.28285619 4.45325983 7.56693738
O 2.36402333 2.84191456 2.09373597
O -2.76742764 5.69541738 7.97907293
O 1.69472532 1.91154946 9.96727322
O 6.71982113 4.80146548 4.60302374
O -1.29768000 3.02150670 10.46861085
O -0.62487996 2.82307921 4.68823446
O 0.28936726 1.75754385 1.43267424
O 7.48257372 3.36738984 7.29198098
O -0.84197497 8.52289817 10.90712169
O 1.33735343 1.39872276 4.80141933
O 2.27833140 0.45409106 1.81299380
O 2.81352019 0.06560383 7.56693738
O -0.16664067 7.22957056 2.09373597
O -0.23676364 1.30776138 7.97907293
O -0.83593868 6.29920546 9.96727322
O 9.25048513 0.41380948 4.60302374
O -3.82834400 7.40916270 10.46861085
O -3.15554396 7.21073521 4.68823446
O -2.24129674 6.14519985 1.43267424
O 4.95190972 7.75504584 7.29198098
O 6.75198103 4.13524217 10.90712169
O 3.86998143 5.78637876 4.80141933
O 4.81095940 4.84174706 1.81299380
O 5.34614819 4.45325983 7.56693738
O 7.42731533 2.84191456 2.09373597
O 2.29586436 5.69541738 7.97907293
O 6.75801732 1.91154946 9.96727322
O 1.65652913 4.80146548 4.60302374
O 3.76561200 3.02150670 10.46861085
O 4.43841204 2.82307921 4.68823446
O 5.35265926 1.75754385 1.43267424
O 2.41928172 3.36738984 7.29198098
O 4.22131703 8.52289817 10.90712169
O 6.40064543 1.39872276 4.80141933
O 7.34162340 0.45409106 1.81299380
O 7.87681219 0.06560383 7.56693738
O 4.89665133 7.22957056 2.09373597
O 4.82652836 1.30776138 7.97907293
O 4.22735332 6.29920546 9.96727322
O 4.18719313 0.41380948 4.60302374
O 1.23494800 7.40916270 10.46861085
O 1.90774804 7.21073521 4.68823446
O 2.82199526 6.14519985 1.43267424
O -0.11138228 7.75504584 7.29198098
Zn 1.65024893 4.54726080 1.41177415
Zn -2.66177456 5.86773833 10.42097889
Zn 2.47976928 3.01010621 4.69919637
Zn 1.70796888 1.64379480 7.96248628
Zn 4.18091293 0.15960480 1.41177415
Zn -0.13111056 1.48008233 10.42097889
Zn -0.05089472 7.39776221 4.69919637
Zn -0.82269512 6.03145080 7.96248628
Zn 6.71354093 4.54726080 1.41177415
Zn 2.40151744 5.86773833 10.42097889
Zn 7.54306128 3.01010621 4.69919637
Zn 6.77126088 1.64379480 7.96248628
Zn 9.24420493 0.15960480 1.41177415
Zn 4.93218144 1.48008233 10.42097889
Zn 5.01239728 7.39776221 4.69919637
Zn 4.24059688 6.03145080 7.96248628
95
Lattice="10.12658400 0.00000000 0.00000000 -5.06132800 8.77531200 0.00000000 -0.11502400 -0.06113500 11.50252700" Properties=species:S:1:pos:R:3 pbc="T T T" image=6 path_id=mp-756912_1_1_1_0_0 chemical_system=B-Li-O-Zn source=z1_nebdft2k_barriers.lock.json
Li 5.00676200 4.35708850 5.75126350
Li -0.11751272 4.45978449 3.62826510
Li -0.95301059 3.19041748 1.11461787
Li -0.92753270 3.11447147 8.26707320
Li 2.41315128 0.07212849 3.62826510
Li 2.47413400 -0.03056750 5.75126350
Li -3.48367459 7.57807348 1.11461787
Li -3.45819670 7.50212747 8.26707320
Li 4.94577928 4.45978449 3.62826510
Li 4.11028141 3.19041748 1.11461787
Li 4.13575930 3.11447147 8.26707320
Li 7.47644328 0.07212849 3.62826510
Li 7.53742600 -0.03056750 5.75126350
Li 1.57961741 7.57807348 1.11461787
Li 1.60509530 7.50212747 8.26707320
B 2.38523988 3.01281232 10.45420969
B -2.58641983 5.93327427 4.69635524
B 1.63705836 1.69553560 1.76654659
B 6.74107520 4.50622769 7.61975699
B -0.14542412 7.40046831 10.45420969
B -0.05575583 1.54561827 4.69635524
B -0.89360564 6.08319160 1.76654659
B 9.27173920 0.11857169 7.61975699
B 7.44853188 3.01281232 10.45420969
B 2.47687217 5.93327427 4.69635524
B 6.70035036 1.69553560 1.76654659
B 1.67778320 4.50622769 7.61975699
B 4.91786788 7.40046831 10.45420969
B 5.00753617 1.54561827 4.69635524
B 4.16968636 6.08319160 1.76654659
B 4.20844720 0.11857169 7.61975699
O 1.68868903 4.13524217 10.90712169
O -1.19331057 5.78637876 4.80141933
O -0.25233260 4.84174706 1.81299380
O 0.28285619 4.45325983 7.56693738
O 2.36402333 2.84191456 2.09373597
O -2.76742764 5.69541738 7.97907293
O 1.69472532 1.91154946 9.96727322
O 6.71982113 4.80146548 4.60302374
O -1.29768000 3.02150670 10.46861085
O -0.62487996 2.82307921 4.68823446
O 0.28936726 1.75754385 1.43267424
O 7.48257372 3.36738984 7.29198098
O -0.84197497 8.52289817 10.90712169
O 1.33735343 1.39872276 4.80141933
O 2.27833140 0.45409106 1.81299380
O 2.81352019 0.06560383 7.56693738
O -0.16664067 7.22957056 2.09373597
O -0.23676364 1.30776138 7.97907293
O -0.83593868 6.29920546 9.96727322
O 9.25048513 0.41380948 4.60302374
O -3.82834400 7.40916270 10.46861085
O -3.15554396 7.21073521 4.68823446
O -2.24129674 6.14519985 1.43267424
O 4.95190972 7.75504584 7.29198098
O 6.75198103 4.13524217 10.90712169
O 3.86998143 5.78637876 4.80141933
O 4.81095940 4.84174706 1.81299380
O 5.34614819 4.45325983 7.56693738
O 7.42731533 2.84191456 2.09373597
O 2.29586436 5.69541738 7.97907293
O 6.75801732 1.91154946 9.96727322
O 1.65652913 4.80146548 4.60302374
O 3.76561200 3.02150670 10.46861085
O 4.43841204 2.82307921 4.68823446
O 5.35265926 1.75754385 1.43267424
O 2.41928172 3.36738984 7.29198098
O 4.22131703 8.52289817 10.90712169
O 6.40064543 1.39872276 4.80141933
O 7.34162340 0.45409106 1.81299380
O 7.87681219 0.06560383 7.56693738
O 4.89665133 7.22957056 2.09373597
O 4.82652836 1.30776138 7.97907293
O 4.22735332 6.29920546 9.96727322
O 4.18719313 0.41380948 4.60302374
O 1.23494800 7.40916270 10.46861085
O 1.90774804 7.21073521 4.68823446
O 2.82199526 6.14519985 1.43267424
O -0.11138228 7.75504584 7.29198098
Zn 1.65024893 4.54726080 1.41177415
Zn -2.66177456 5.86773833 10.42097889
Zn 2.47976928 3.01010621 4.69919637
Zn 1.70796888 1.64379480 7.96248628
Zn 4.18091293 0.15960480 1.41177415
Zn -0.13111056 1.48008233 10.42097889
Zn -0.05089472 7.39776221 4.69919637
Zn -0.82269512 6.03145080 7.96248628
Zn 6.71354093 4.54726080 1.41177415
Zn 2.40151744 5.86773833 10.42097889
Zn 7.54306128 3.01010621 4.69919637
Zn 6.77126088 1.64379480 7.96248628
Zn 9.24420493 0.15960480 1.41177415
Zn 4.93218144 1.48008233 10.42097889
Zn 5.01239728 7.39776221 4.69919637
Zn 4.24059688 6.03145080 7.96248628
