87
Lattice="12.39906004 0.00000000 0.00000000 -2.41852841 8.90945420 0.00000000 1.88248082 -0.79567069 8.12671158" Properties=species:S:1:pos:R:3 pbc="T T T" image=0 path_id=mp-752552_0_7_0_0_1 chemical_system=C-Li-O-V source=z1_nebdft2k_barriers.lock.json
Li 6.95790854 4.93378079 3.18910854
Li 2.64453009 6.76759986 7.25231805
Li 5.06727970 0.47888713 3.18880785
Li 6.95310902 2.31306893 7.25240744
Li 4.90688174 5.80298408 0.87569381
Li 0.59566103 7.63485788 4.93765993
Li 3.01624266 1.34811316 0.87543375
Li 0.75837852 4.93378079 3.18910854
Li 8.84406011 6.76759986 7.25231805
Li 11.26680972 0.47888713 3.18880785
Li 13.15263904 2.31306893 7.25240744
Li -1.29264828 5.80298408 0.87569381
Li 6.79519105 7.63485788 4.93765993
Li 9.21577268 1.34811316 0.87543375
Li 11.10463393 3.18000271 4.93760304
C 5.57249794 5.52484685 6.45581092
C 5.57754052 8.14698744 2.39111422
C 3.68201264 1.07040741 6.45542084
C 3.68718239 3.69206847 2.39116298
C 1.97480802 4.42374050 5.73588180
C 1.97987025 7.04341315 1.67209529
C 6.28375431 -0.03075972 5.73547546
C 6.28883783 2.58881731 1.67211967
C 11.77202796 5.52484685 6.45581092
C -0.62198950 8.14698744 2.39111422
C 9.88154266 1.07040741 6.45542084
C 9.88671241 3.69206847 2.39116298
C 8.17433804 4.42374050 5.73588180
C 8.17940027 7.04341315 1.67209529
C 12.48328433 -0.03075972 5.73547546
C 0.08930781 2.58881731 1.67211967
O 1.99951992 5.18317200 4.68177416
O 2.00587533 7.80183361 0.61693931
O 6.30844089 0.72858013 4.68175791
O 6.31472536 3.34694073 0.61708559
O 5.08871923 5.09038651 5.33125283
O 5.09528667 7.71223234 1.26474387
O 3.19807718 0.63582169 5.33096026
O 3.20515597 3.25736157 1.26502831
O 6.10434337 6.70944327 6.51910175
O 2.32694551 0.42241965 2.45672117
O 4.21372855 2.25458046 6.51884982
O 4.21754026 4.87704651 2.45683494
O 7.64257663 3.23951799 5.67104689
O 1.44949336 5.85841997 1.60794303
O 3.33345385 7.69408759 5.67083560
O 5.75866986 1.40383542 1.60794303
O 2.45917140 4.85741185 6.86130945
O 2.46168635 7.47892384 2.79748231
O 6.76798116 0.40281713 6.86104939
O 6.77053527 3.02442552 2.79723851
O 5.54732986 4.76627908 7.51056056
O 5.55211380 7.38765665 3.44537626
O 3.65677865 0.31179142 7.51038990
O 3.66187710 2.93315134 3.44529500
O 8.19904994 5.18317200 4.68177416
O 8.20540535 7.80183361 0.61693931
O 12.50797091 0.72858013 4.68175791
O 0.11519534 3.34694073 0.61708559
O 11.28824925 5.09038651 5.33125283
O -1.10424335 7.71223234 1.26474387
O 9.39760720 0.63582169 5.33096026
O 9.40468599 3.25736157 1.26502831
O -0.09518665 6.70944327 6.51910175
O 8.52647553 0.42241965 2.45672117
O 10.41325857 2.25458046 6.51884982
O 10.41707028 4.87704651 2.45683494
O 1.44304661 3.23951799 5.67104689
O 7.64902338 5.85841997 1.60794303
O 9.53298387 7.69408759 5.67083560
O 11.95819988 1.40383542 1.60794303
O 8.65870142 4.85741185 6.86130945
O 8.66121637 7.47892384 2.79748231
O 12.96751118 0.40281713 6.86104939
O 0.57100525 3.02442552 2.79723851
O 11.74685988 4.76627908 7.51056056
O -0.64741622 7.38765665 3.44537626
O 9.85630867 0.31179142 7.51038990
O 9.86140712 2.93315134 3.44529500
V 3.77633506 6.28519093 4.06435538
V 8.08115105 -0.79551922 8.12625649
V 1.88569871 1.83099952 4.06407094
V 3.77209941 3.65866821 8.12658156
V 9.97586508 6.28519093 4.06435538
V 14.28068107 -0.79551922 8.12625649
V 8.08522873 1.83099952 4.06407094
V 9.97162943 3.65866821 8.12658156
87
Lattice="12.39906004 0.00000000 0.00000000 -2.41852841 8.90945420 0.00000000 1.88248082 -0.79567069 8.12671158" Properties=species:S:1:pos:R:3 pbc="T T T" image=1 path_id=mp-752552_0_7_0_0_1 chemical_system=C-Li-O-V source=z1_nebdft2k_barriers.lock.json
Li 6.23174427 4.74049316 3.66277715
Li 2.64453009 6.76759986 7.25231805
Li 5.06727970 0.47888713 3.18880785
Li 6.95310902 2.31306893 7.25240744
Li 4.90688174 5.80298408 0.87569381
Li 0.59566103 7.63485788 4.93765993
Li 3.01624266 1.34811316 0.87543375
Li 0.75837852 4.93378079 3.18910854
Li 8.84406011 6.76759986 7.25231805
Li 11.26680972 0.47888713 3.18880785
Li 13.15263904 2.31306893 7.25240744
Li -1.29264828 5.80298408 0.87569381
Li 6.79519105 7.63485788 4.93765993
Li 9.21577268 1.34811316 0.87543375
Li 11.10463393 3.18000271 4.93760304
C 5.57249794 5.52484685 6.45581092
C 5.57754052 8.14698744 2.39111422
C 3.68201264 1.07040741 6.45542084
C 3.68718239 3.69206847 2.39116298
C 1.97480802 4.42374050 5.73588180
C 1.97987025 7.04341315 1.67209529
C 6.28375431 -0.03075972 5.73547546
C 6.28883783 2.58881731 1.67211967
C 11.77202796 5.52484685 6.45581092
C -0.62198950 8.14698744 2.39111422
C 9.88154266 1.07040741 6.45542084
C 9.88671241 3.69206847 2.39116298
C 8.17433804 4.42374050 5.73588180
C 8.17940027 7.04341315 1.67209529
C 12.48328433 -0.03075972 5.73547546
C 0.08930781 2.58881731 1.67211967
O 1.99951992 5.18317200 4.68177416
O 2.00587533 7.80183361 0.61693931
O 6.30844089 0.72858013 4.68175791
O 6.31472536 3.34694073 0.61708559
O 5.08871923 5.09038651 5.33125283
O 5.09528667 7.71223234 1.26474387
O 3.19807718 0.63582169 5.33096026
O 3.20515597 3.25736157 1.26502831
O 6.10434337 6.70944327 6.51910175
O 2.32694551 0.42241965 2.45672117
O 4.21372855 2.25458046 6.51884982
O 4.21754026 4.87704651 2.45683494
O 7.64257663 3.23951799 5.67104689
O 1.44949336 5.85841997 1.60794303
O 3.33345385 7.69408759 5.67083560
O 5.75866986 1.40383542 1.60794303
O 2.45917140 4.85741185 6.86130945
O 2.46168635 7.47892384 2.79748231
O 6.76798116 0.40281713 6.86104939
O 6.77053527 3.02442552 2.79723851
O 5.54732986 4.76627908 7.51056056
O 5.55211380 7.38765665 3.44537626
O 3.65677865 0.31179142 7.51038990
O 3.66187710 2.93315134 3.44529500
O 8.19904994 5.18317200 4.68177416
O 8.20540535 7.80183361 0.61693931
O 12.50797091 0.72858013 4.68175791
O 0.11519534 3.34694073 0.61708559
O 11.28824925 5.09038651 5.33125283
O -1.10424335 7.71223234 1.26474387
O 9.39760720 0.63582169 5.33096026
O 9.40468599 3.25736157 1.26502831
O -0.09518665 6.70944327 6.51910175
O 8.52647553 0.42241965 2.45672117
O 10.41325857 2.25458046 6.51884982
O 10.41707028 4.87704651 2.45683494
O 1.44304661 3.23951799 5.67104689
O 7.64902338 5.85841997 1.60794303
O 9.53298387 7.69408759 5.67083560
O 11.95819988 1.40383542 1.60794303
O 8.65870142 4.85741185 6.86130945
O 8.66121637 7.47892384 2.79748231
O 12.96751118 0.40281713 6.86104939
O 0.57100525 3.02442552 2.79723851
O 11.74685988 4.76627908 7.51056056
O -0.64741622 7.38765665 3.44537626
O 9.85630867 0.31179142 7.51038990
O 9.86140712 2.93315134 3.44529500
V 3.77633506 6.28519093 4.06435538
V 8.08115105 -0.79551922 8.12625649
V 1.88569871 1.83099952 4.06407094
V 3.77209941 3.65866821 8.12658156
V 9.97586508 6.28519093 4.06435538
V 14.28068107 -0.79551922 8.12625649
V 8.08522873 1.83099952 4.06407094
V 9.97162943 3.65866821 8.12658156
87
Lattice="12.39906004 0.00000000 0.00000000 -2.41852841 8.90945420 0.00000000 1.88248082 -0.79567069 8.12671158" Properties=species:S:1:pos:R:3 pbc="T T T" image=2 path_id=mp-752552_0_7_0_0_1 chemical_system=C-Li-O-V source=z1_nebdft2k_barriers.lock.json
Li 5.88696949 4.03326228 4.05450082
Li 2.64453009 6.76759986 7.25231805
Li 5.06727970 0.47888713 3.18880785
Li 6.95310902 2.31306893 7.25240744
Li 4.90688174 5.80298408 0.87569381
Li 0.59566103 7.63485788 4.93765993
Li 3.01624266 1.34811316 0.87543375
Li 0.75837852 4.93378079 3.18910854
Li 8.84406011 6.76759986 7.25231805
Li 11.26680972 0.47888713 3.18880785
Li 13.15263904 2.31306893 7.25240744
Li -1.29264828 5.80298408 0.87569381
Li 6.79519105 7.63485788 4.93765993
Li 9.21577268 1.34811316 0.87543375
Li 11.10463393 3.18000271 4.93760304
C 5.57249794 5.52484685 6.45581092
C 5.57754052 8.14698744 2.39111422
C 3.68201264 1.07040741 6.45542084
C 3.68718239 3.69206847 2.39116298
C 1.97480802 4.42374050 5.73588180
C 1.97987025 7.04341315 1.67209529
C 6.28375431 -0.03075972 5.73547546
C 6.28883783 2.58881731 1.67211967
C 11.77202796 5.52484685 6.45581092
C -0.62198950 8.14698744 2.39111422
C 9.88154266 1.07040741 6.45542084
C 9.88671241 3.69206847 2.39116298
C 8.17433804 4.42374050 5.73588180
C 8.17940027 7.04341315 1.67209529
C 12.48328433 -0.03075972 5.73547546
C 0.08930781 2.58881731 1.67211967
O 1.99951992 5.18317200 4.68177416
O 2.00587533 7.80183361 0.61693931
O 6.30844089 0.72858013 4.68175791
O 6.31472536 3.34694073 0.61708559
O 5.08871923 5.09038651 5.33125283
O 5.09528667 7.71223234 1.26474387
O 3.19807718 0.63582169 5.33096026
O 3.20515597 3.25736157 1.26502831
O 6.10434337 6.70944327 6.51910175
O 2.32694551 0.42241965 2.45672117
O 4.21372855 2.25458046 6.51884982
O 4.21754026 4.87704651 2.45683494
O 7.64257663 3.23951799 5.67104689
O 1.44949336 5.85841997 1.60794303
O 3.33345385 7.69408759 5.67083560
O 5.75866986 1.40383542 1.60794303
O 2.45917140 4.85741185 6.86130945
O 2.46168635 7.47892384 2.79748231
O 6.76798116 0.40281713 6.86104939
O 6.77053527 3.02442552 2.79723851
O 5.54732986 4.76627908 7.51056056
O 5.55211380 7.38765665 3.44537626
O 3.65677865 0.31179142 7.51038990
O 3.66187710 2.93315134 3.44529500
O 8.19904994 5.18317200 4.68177416
O 8.20540535 7.80183361 0.61693931
O 12.50797091 0.72858013 4.68175791
O 0.11519534 3.34694073 0.61708559
O 11.28824925 5.09038651 5.33125283
O -1.10424335 7.71223234 1.26474387
O 9.39760720 0.63582169 5.33096026
O 9.40468599 3.25736157 1.26502831
O -0.09518665 6.70944327 6.51910175
O 8.52647553 0.42241965 2.45672117
O 10.41325857 2.25458046 6.51884982
O 10.41707028 4.87704651 2.45683494
O 1.44304661 3.23951799 5.67104689
O 7.64902338 5.85841997 1.60794303
O 9.53298387 7.69408759 5.67083560
O 11.95819988 1.40383542 1.60794303
O 8.65870142 4.85741185 6.86130945
O 8.66121637 7.47892384 2.79748231
O 12.96751118 0.40281713 6.86104939
O 0.57100525 3.02442552 2.79723851
O 11.74685988 4.76627908 7.51056056
O -0.64741622 7.38765665 3.44537626
O 9.85630867 0.31179142 7.51038990
O 9.86140712 2.93315134 3.44529500
V 3.77633506 6.28519093 4.06435538
V 8.08115105 -0.79551922 8.12625649
V 1.88569871 1.83099952 4.06407094
V 3.77209941 3.65866821 8.12658156
V 9.97586508 6.28519093 4.06435538
V 14.28068107 -0.79551922 8.12625649
V 8.08522873 1.83099952 4.06407094
V 9.97162943 3.65866821 8.12658156
87
Lattice="12.39906004 0.00000000 0.00000000 -2.41852841 8.90945420 0.00000000 1.88248082 -0.79567069 8.12671158" Properties=species:S:1:pos:R:3 pbc="T T T" image=3 path_id=mp-752552_0_7_0_0_1 chemical_system=C-Li-O-V source=z1_nebdft2k_barriers.lock.json
Li 5.59919309 3.34672977 4.48999486
Li 2.64453009 6.76759986 7.25231805
Li 5.06727970 0.47888713 3.18880785
Li 6.95310902 2.31306893 7.25240744
Li 4.90688174 5.80298408 0.87569381
Li 0.59566103 7.63485788 4.93765993
Li 3.01624266 1.34811316 0.87543375
Li 0.75837852 4.93378079 3.18910854
Li 8.84406011 6.76759986 7.25231805
Li 11.26680972 0.47888713 3.18880785
Li 13.15263904 2.31306893 7.25240744
Li -1.29264828 5.80298408 0.87569381
Li 6.79519105 7.63485788 4.93765993
Li 9.21577268 1.34811316 0.87543375
Li 11.10463393 3.18000271 4.93760304
C 5.57249794 5.52484685 6.45581092
C 5.57754052 8.14698744 2.39111422
C 3.68201264 1.07040741 6.45542084
C 3.68718239 3.69206847 2.39116298
C 1.97480802 4.42374050 5.73588180
C 1.97987025 7.04341315 1.67209529
C 6.28375431 -0.03075972 5.73547546
C 6.28883783 2.58881731 1.67211967
C 11.77202796 5.52484685 6.45581092
C -0.62198950 8.14698744 2.39111422
C 9.88154266 1.07040741 6.45542084
C 9.88671241 3.69206847 2.39116298
C 8.17433804 4.42374050 5.73588180
C 8.17940027 7.04341315 1.67209529
C 12.48328433 -0.03075972 5.73547546
C 0.08930781 2.58881731 1.67211967
O 1.99951992 5.18317200 4.68177416
O 2.00587533 7.80183361 0.61693931
O 6.30844089 0.72858013 4.68175791
O 6.31472536 3.34694073 0.61708559
O 5.08871923 5.09038651 5.33125283
O 5.09528667 7.71223234 1.26474387
O 3.19807718 0.63582169 5.33096026
O 3.20515597 3.25736157 1.26502831
O 6.10434337 6.70944327 6.51910175
O 2.32694551 0.42241965 2.45672117
O 4.21372855 2.25458046 6.51884982
O 4.21754026 4.87704651 2.45683494
O 7.64257663 3.23951799 5.67104689
O 1.44949336 5.85841997 1.60794303
O 3.33345385 7.69408759 5.67083560
O 5.75866986 1.40383542 1.60794303
O 2.45917140 4.85741185 6.86130945
O 2.46168635 7.47892384 2.79748231
O 6.76798116 0.40281713 6.86104939
O 6.77053527 3.02442552 2.79723851
O 5.54732986 4.76627908 7.51056056
O 5.55211380 7.38765665 3.44537626
O 3.65677865 0.31179142 7.51038990
O 3.66187710 2.93315134 3.44529500
O 8.19904994 5.18317200 4.68177416
O 8.20540535 7.80183361 0.61693931
O 12.50797091 0.72858013 4.68175791
O 0.11519534 3.34694073 0.61708559
O 11.28824925 5.09038651 5.33125283
O -1.10424335 7.71223234 1.26474387
O 9.39760720 0.63582169 5.33096026
O 9.40468599 3.25736157 1.26502831
O -0.09518665 6.70944327 6.51910175
O 8.52647553 0.42241965 2.45672117
O 10.41325857 2.25458046 6.51884982
O 10.41707028 4.87704651 2.45683494
O 1.44304661 3.23951799 5.67104689
O 7.64902338 5.85841997 1.60794303
O 9.53298387 7.69408759 5.67083560
O 11.95819988 1.40383542 1.60794303
O 8.65870142 4.85741185 6.86130945
O 8.66121637 7.47892384 2.79748231
O 12.96751118 0.40281713 6.86104939
O 0.57100525 3.02442552 2.79723851
O 11.74685988 4.76627908 7.51056056
O -0.64741622 7.38765665 3.44537626
O 9.85630867 0.31179142 7.51038990
O 9.86140712 2.93315134 3.44529500
V 3.77633506 6.28519093 4.06435538
V 8.08115105 -0.79551922 8.12625649
V 1.88569871 1.83099952 4.06407094
V 3.77209941 3.65866821 8.12658156
V 9.97586508 6.28519093 4.06435538
V 14.28068107 -0.79551922 8.12625649
V 8.08522873 1.83099952 4.06407094
V 9.97162943 3.65866821 8.12658156
87
Lattice="12.39906004 0.00000000 0.00000000 -2.41852841 8.90945420 0.00000000 1.88248082 -0.79567069 8.12671158" Properties=species:S:1:pos:R:3 pbc="T T T" image=4 path_id=mp-752552_0_7_0_0_1 chemical_system=C-Li-O-V source=z1_nebdft2k_barriers.lock.json
Li 4.90510391 3.18000271 4.93760304
Li 2.64453009 6.76759986 7.25231805
Li 5.06727970 0.47888713 3.18880785
Li 6.95310902 2.31306893 7.25240744
Li 4.90688174 5.80298408 0.87569381
Li 0.59566103 7.63485788 4.93765993
Li 3.01624266 1.34811316 0.87543375
Li 0.75837852 4.93378079 3.18910854
Li 8.84406011 6.76759986 7.25231805
Li 11.26680972 0.47888713 3.18880785
Li 13.15263904 2.31306893 7.25240744
Li -1.29264828 5.80298408 0.87569381
Li 6.79519105 7.63485788 4.93765993
Li 9.21577268 1.34811316 0.87543375
Li 11.10463393 3.18000271 4.93760304
C 5.57249794 5.52484685 6.45581092
C 5.57754052 8.14698744 2.39111422
C 3.68201264 1.07040741 6.45542084
C 3.68718239 3.69206847 2.39116298
C 1.97480802 4.42374050 5.73588180
C 1.97987025 7.04341315 1.67209529
C 6.28375431 -0.03075972 5.73547546
C 6.28883783 2.58881731 1.67211967
C 11.77202796 5.52484685 6.45581092
C -0.62198950 8.14698744 2.39111422
C 9.88154266 1.07040741 6.45542084
C 9.88671241 3.69206847 2.39116298
C 8.17433804 4.42374050 5.73588180
C 8.17940027 7.04341315 1.67209529
C 12.48328433 -0.03075972 5.73547546
C 0.08930781 2.58881731 1.67211967
O 1.99951992 5.18317200 4.68177416
O 2.00587533 7.80183361 0.61693931
O 6.30844089 0.72858013 4.68175791
O 6.31472536 3.34694073 0.61708559
O 5.08871923 5.09038651 5.33125283
O 5.09528667 7.71223234 1.26474387
O 3.19807718 0.63582169 5.33096026
O 3.20515597 3.25736157 1.26502831
O 6.10434337 6.70944327 6.51910175
O 2.32694551 0.42241965 2.45672117
O 4.21372855 2.25458046 6.51884982
O 4.21754026 4.87704651 2.45683494
O 7.64257663 3.23951799 5.67104689
O 1.44949336 5.85841997 1.60794303
O 3.33345385 7.69408759 5.67083560
O 5.75866986 1.40383542 1.60794303
O 2.45917140 4.85741185 6.86130945
O 2.46168635 7.47892384 2.79748231
O 6.76798116 0.40281713 6.86104939
O 6.77053527 3.02442552 2.79723851
O 5.54732986 4.76627908 7.51056056
O 5.55211380 7.38765665 3.44537626
O 3.65677865 0.31179142 7.51038990
O 3.66187710 2.93315134 3.44529500
O 8.19904994 5.18317200 4.68177416
O 8.20540535 7.80183361 0.61693931
O 12.50797091 0.72858013 4.68175791
O 0.11519534 3.34694073 0.61708559
O 11.28824925 5.09038651 5.33125283
O -1.10424335 7.71223234 1.26474387
O 9.39760720 0.63582169 5.33096026
O 9.40468599 3.25736157 1.26502831
O -0.09518665 6.70944327 6.51910175
O 8.52647553 0.42241965 2.45672117
O 10.41325857 2.25458046 6.51884982
O 10.41707028 4.87704651 2.45683494
O 1.44304661 3.23951799 5.67104689
O 7.64902338 5.85841997 1.60794303
O 9.53298387 7.69408759 5.67083560
O 11.95819988 1.40383542 1.60794303
O 8.65870142 4.85741185 6.86130945
O 8.66121637 7.47892384 2.79748231
O 12.96751118 0.40281713 6.86104939
O 0.57100525 3.02442552 2.79723851
O 11.74685988 4.76627908 7.51056056
O -0.64741622 7.38765665 3.44537626
O 9.85630867 0.31179142 7.51038990
O 9.86140712 2.93315134 3.44529500
V 3.77633506 6.28519093 4.06435538
V 8.08115105 -0.79551922 8.12625649
V 1.88569871 1.83099952 4.06407094
V 3.77209941 3.65866821 8.12658156
V 9.97586508 6.28519093 4.06435538
V 14.28068107 -0.79551922 8.12625649
V 8.08522873 1.83099952 4.06407094
V 9.97162943 3.65866821 8.12658156
