111
Lattice="12.79752692 0.00000000 0.00000000 7.17908129 10.59421951 0.00000000 2.56705645 1.36139024 9.85385799" Properties=species:S:1:pos:R:3 pbc="T T T" image=0 path_id=mp-761269_2_1_1_-1_0 chemical_system=Ag-F-Li source=z1_nebdft2k_barriers.lock.json
Li 10.51869794 8.17315907 6.15866124
Li 10.59314518 6.48231337 3.69519675
Li 9.21574391 9.07956045 3.69519675
Li 9.14129667 10.77040614 6.15866124
Li 11.87667341 7.16300849 8.62212574
Li 10.49927213 9.76025557 8.62212574
Li 9.23516971 7.49246394 1.23173225
Li 7.85776844 10.08971102 1.23173225
Li 7.00360454 1.18520362 3.69519675
Li 5.62620326 3.78245069 3.69519675
Li 6.92915729 2.87604931 6.15866124
Li 5.55175602 5.47329638 6.15866124
Li 8.28713276 1.86589874 8.62212574
Li 6.90973149 4.46314581 8.62212574
Li 5.64562907 2.19535419 1.23173225
Li 4.26822779 4.79260126 1.23173225
Li 16.99190864 6.48231337 3.69519675
Li 15.61450737 9.07956045 3.69519675
Li 16.91746140 8.17315907 6.15866124
Li 15.54006013 10.77040614 6.15866124
Li 18.27543687 7.16300849 8.62212574
Li 16.89803559 9.76025557 8.62212574
Li 15.63393317 7.49246394 1.23173225
Li 14.25653190 10.08971102 1.23173225
Li 13.40236800 1.18520362 3.69519675
Li 13.32792075 2.87604931 6.15866124
Li 11.95051948 5.47329638 6.15866124
Li 14.68589622 1.86589874 8.62212574
Li 13.30849495 4.46314581 8.62212574
Li 12.04439253 2.19535419 1.23173225
Li 10.66699125 4.79260126 1.23173225
F 9.67066581 11.06849113 4.09718981
F 11.07067841 8.39686171 4.23985397
F 8.66376344 8.85585781 5.61400403
F 12.42040049 7.43401996 6.56065431
F 10.06377604 6.18422838 5.75666818
F 10.99410739 10.09171201 6.70331846
F 8.74033446 7.16100750 3.15053953
F 7.31404136 9.81869955 3.29320368
F 10.95419403 11.74918625 9.02411881
F 12.35420663 9.07755683 9.16678296
F 7.38023522 8.17516268 0.68707503
F 11.13687226 6.75332484 1.63372531
F 8.78024782 5.50353326 0.82973919
F 9.71057917 9.41101689 1.77638947
F 10.02386268 7.84170262 8.07746852
F 8.59756958 10.49939467 8.22013268
F 6.08112516 5.77138138 4.09718981
F 7.48113776 3.09975195 4.23985397
F 5.07422280 3.55874805 5.61400403
F 8.83085984 2.13691020 6.56065431
F 6.47423539 0.88711862 5.75666818
F 7.40456674 4.79460226 6.70331846
F 5.15079381 1.86389774 3.15053953
F 3.72450071 4.52158980 3.29320368
F 7.36465339 6.45207650 9.02411881
F 8.76466599 3.78044707 9.16678296
F 3.79069457 2.87805293 0.68707503
F 7.54733162 1.45621508 1.63372531
F 5.19070717 0.20642350 0.82973919
F 6.12103852 4.11390714 1.77638947
F 6.43432204 2.54459286 8.07746852
F 5.00802894 5.20228492 8.22013268
F 16.06942927 11.06849113 4.09718981
F 17.46944187 8.39686171 4.23985397
F 15.06252690 8.85585781 5.61400403
F 18.81916395 7.43401996 6.56065431
F 16.46253950 6.18422838 5.75666818
F 17.39287085 10.09171201 6.70331846
F 15.13909792 7.16100750 3.15053953
F 13.71280482 9.81869955 3.29320368
F 17.35295749 11.74918625 9.02411881
F 18.75297009 9.07755683 9.16678296
F 13.77899868 8.17516268 0.68707503
F 17.53563572 6.75332484 1.63372531
F 15.17901128 5.50353326 0.82973919
F 16.10934263 9.41101689 1.77638947
F 16.42262614 7.84170262 8.07746852
F 14.99633304 10.49939467 8.22013268
F 12.47988862 5.77138138 4.09718981
F 13.87990122 3.09975195 4.23985397
F 11.47298626 3.55874805 5.61400403
F 15.22962330 2.13691020 6.56065431
F 12.87299885 0.88711862 5.75666818
F 13.80333020 4.79460226 6.70331846
F 11.54955727 1.86389774 3.15053953
F 10.12326417 4.52158980 3.29320368
F 13.76341685 6.45207650 9.02411881
F 15.16342945 3.78044707 9.16678296
F 10.18945803 2.87805293 0.68707503
F 13.94609508 1.45621508 1.63372531
F 11.58947063 0.20642350 0.82973919
F 12.51980198 4.11390714 1.77638947
F 12.83308550 2.54459286 8.07746852
F 11.40679240 5.20228492 8.22013268
Ag 6.66783919 8.62635976 4.92692900
Ag 7.43068649 5.63745732 2.46346450
Ag 5.38431097 7.94566463 0.00000000
Ag 8.71421471 6.31815244 7.39039349
Ag 3.07829855 3.32925000 4.92692900
Ag 3.84114584 0.34034756 2.46346450
Ag 1.79477032 2.64855488 0.00000000
Ag 5.12467407 1.02104268 7.39039349
Ag 13.06660265 8.62635976 4.92692900
Ag 13.82944995 5.63745732 2.46346450
Ag 11.78307443 7.94566463 0.00000000
Ag 15.11297817 6.31815244 7.39039349
Ag 9.47706201 3.32925000 4.92692900
Ag 10.23990930 0.34034756 2.46346450
Ag 8.19353378 2.64855488 0.00000000
Ag 11.52343753 1.02104268 7.39039349
111
Lattice="12.79752692 0.00000000 0.00000000 7.17908129 10.59421951 0.00000000 2.56705645 1.36139024 9.85385799" Properties=species:S:1:pos:R:3 pbc="T T T" image=1 path_id=mp-761269_2_1_1_-1_0 chemical_system=Ag-F-Li source=z1_nebdft2k_barriers.lock.json
Li 10.99975876 7.52450292 5.66097917
Li 10.59314518 6.48231337 3.69519675
Li 9.21574391 9.07956045 3.69519675
Li 9.14129667 10.77040614 6.15866124
Li 11.87667341 7.16300849 8.62212574
Li 10.49927213 9.76025557 8.62212574
Li 9.23516971 7.49246394 1.23173225
Li 7.85776844 10.08971102 1.23173225
Li 7.00360454 1.18520362 3.69519675
Li 5.62620326 3.78245069 3.69519675
Li 6.92915729 2.87604931 6.15866124
Li 5.55175602 5.47329638 6.15866124
Li 8.28713276 1.86589874 8.62212574
Li 6.90973149 4.46314581 8.62212574
Li 5.64562907 2.19535419 1.23173225
Li 4.26822779 4.79260126 1.23173225
Li 16.99190864 6.48231337 3.69519675
Li 15.61450737 9.07956045 3.69519675
Li 16.91746140 8.17315907 6.15866124
Li 15.54006013 10.77040614 6.15866124
Li 18.27543687 7.16300849 8.62212574
Li 16.89803559 9.76025557 8.62212574
Li 15.63393317 7.49246394 1.23173225
Li 14.25653190 10.08971102 1.23173225
Li 13.40236800 1.18520362 3.69519675
Li 13.32792075 2.87604931 6.15866124
Li 11.95051948 5.47329638 6.15866124
Li 14.68589622 1.86589874 8.62212574
Li 13.30849495 4.46314581 8.62212574
Li 12.04439253 2.19535419 1.23173225
Li 10.66699125 4.79260126 1.23173225
F 9.67066581 11.06849113 4.09718981
F 11.07067841 8.39686171 4.23985397
F 8.66376344 8.85585781 5.61400403
F 12.42040049 7.43401996 6.56065431
F 10.06377604 6.18422838 5.75666818
F 10.99410739 10.09171201 6.70331846
F 8.74033446 7.16100750 3.15053953
F 7.31404136 9.81869955 3.29320368
F 10.95419403 11.74918625 9.02411881
F 12.35420663 9.07755683 9.16678296
F 7.38023522 8.17516268 0.68707503
F 11.13687226 6.75332484 1.63372531
F 8.78024782 5.50353326 0.82973919
F 9.71057917 9.41101689 1.77638947
F 10.02386268 7.84170262 8.07746852
F 8.59756958 10.49939467 8.22013268
F 6.08112516 5.77138138 4.09718981
F 7.48113776 3.09975195 4.23985397
F 5.07422280 3.55874805 5.61400403
F 8.83085984 2.13691020 6.56065431
F 6.47423539 0.88711862 5.75666818
F 7.40456674 4.79460226 6.70331846
F 5.15079381 1.86389774 3.15053953
F 3.72450071 4.52158980 3.29320368
F 7.36465339 6.45207650 9.02411881
F 8.76466599 3.78044707 9.16678296
F 3.79069457 2.87805293 0.68707503
F 7.54733162 1.45621508 1.63372531
F 5.19070717 0.20642350 0.82973919
F 6.12103852 4.11390714 1.77638947
F 6.43432204 2.54459286 8.07746852
F 5.00802894 5.20228492 8.22013268
F 16.06942927 11.06849113 4.09718981
F 17.46944187 8.39686171 4.23985397
F 15.06252690 8.85585781 5.61400403
F 18.81916395 7.43401996 6.56065431
F 16.46253950 6.18422838 5.75666818
F 17.39287085 10.09171201 6.70331846
F 15.13909792 7.16100750 3.15053953
F 13.71280482 9.81869955 3.29320368
F 17.35295749 11.74918625 9.02411881
F 18.75297009 9.07755683 9.16678296
F 13.77899868 8.17516268 0.68707503
F 17.53563572 6.75332484 1.63372531
F 15.17901128 5.50353326 0.82973919
F 16.10934263 9.41101689 1.77638947
F 16.42262614 7.84170262 8.07746852
F 14.99633304 10.49939467 8.22013268
F 12.47988862 5.77138138 4.09718981
F 13.87990122 3.09975195 4.23985397
F 11.47298626 3.55874805 5.61400403
F 15.22962330 2.13691020 6.56065431
F 12.87299885 0.88711862 5.75666818
F 13.80333020 4.79460226 6.70331846
F 11.54955727 1.86389774 3.15053953
F 10.12326417 4.52158980 3.29320368
F 13.76341685 6.45207650 9.02411881
F 15.16342945 3.78044707 9.16678296
F 10.18945803 2.87805293 0.68707503
F 13.94609508 1.45621508 1.63372531
F 11.58947063 0.20642350 0.82973919
F 12.51980198 4.11390714 1.77638947
F 12.83308550 2.54459286 8.07746852
F 11.40679240 5.20228492 8.22013268
Ag 6.66783919 8.62635976 4.92692900
Ag 7.43068649 5.63745732 2.46346450
Ag 5.38431097 7.94566463 0.00000000
Ag 8.71421471 6.31815244 7.39039349
Ag 3.07829855 3.32925000 4.92692900
Ag 3.84114584 0.34034756 2.46346450
Ag 1.79477032 2.64855488 0.00000000
Ag 5.12467407 1.02104268 7.39039349
Ag 13.06660265 8.62635976 4.92692900
Ag 13.82944995 5.63745732 2.46346450
Ag 11.78307443 7.94566463 0.00000000
Ag 15.11297817 6.31815244 7.39039349
Ag 9.47706201 3.32925000 4.92692900
Ag 10.23990930 0.34034756 2.46346450
Ag 8.19353378 2.64855488 0.00000000
Ag 11.52343753 1.02104268 7.39039349
111
Lattice="12.79752692 0.00000000 0.00000000 7.17908129 10.59421951 0.00000000 2.56705645 1.36139024 9.85385799" Properties=species:S:1:pos:R:3 pbc="T T T" image=2 path_id=mp-761269_2_1_1_-1_0 chemical_system=Ag-F-Li source=z1_nebdft2k_barriers.lock.json
Li 11.46007188 6.87531704 5.15371907
Li 10.59314518 6.48231337 3.69519675
Li 9.21574391 9.07956045 3.69519675
Li 9.14129667 10.77040614 6.15866124
Li 11.87667341 7.16300849 8.62212574
Li 10.49927213 9.76025557 8.62212574
Li 9.23516971 7.49246394 1.23173225
Li 7.85776844 10.08971102 1.23173225
Li 7.00360454 1.18520362 3.69519675
Li 5.62620326 3.78245069 3.69519675
Li 6.92915729 2.87604931 6.15866124
Li 5.55175602 5.47329638 6.15866124
Li 8.28713276 1.86589874 8.62212574
Li 6.90973149 4.46314581 8.62212574
Li 5.64562907 2.19535419 1.23173225
Li 4.26822779 4.79260126 1.23173225
Li 16.99190864 6.48231337 3.69519675
Li 15.61450737 9.07956045 3.69519675
Li 16.91746140 8.17315907 6.15866124
Li 15.54006013 10.77040614 6.15866124
Li 18.27543687 7.16300849 8.62212574
Li 16.89803559 9.76025557 8.62212574
Li 15.63393317 7.49246394 1.23173225
Li 14.25653190 10.08971102 1.23173225
Li 13.40236800 1.18520362 3.69519675
Li 13.32792075 2.87604931 6.15866124
Li 11.95051948 5.47329638 6.15866124
Li 14.68589622 1.86589874 8.62212574
Li 13.30849495 4.46314581 8.62212574
Li 12.04439253 2.19535419 1.23173225
Li 10.66699125 4.79260126 1.23173225
F 9.67066581 11.06849113 4.09718981
F 11.07067841 8.39686171 4.23985397
F 8.66376344 8.85585781 5.61400403
F 12.42040049 7.43401996 6.56065431
F 10.06377604 6.18422838 5.75666818
F 10.99410739 10.09171201 6.70331846
F 8.74033446 7.16100750 3.15053953
F 7.31404136 9.81869955 3.29320368
F 10.95419403 11.74918625 9.02411881
F 12.35420663 9.07755683 9.16678296
F 7.38023522 8.17516268 0.68707503
F 11.13687226 6.75332484 1.63372531
F 8.78024782 5.50353326 0.82973919
F 9.71057917 9.41101689 1.77638947
F 10.02386268 7.84170262 8.07746852
F 8.59756958 10.49939467 8.22013268
F 6.08112516 5.77138138 4.09718981
F 7.48113776 3.09975195 4.23985397
F 5.07422280 3.55874805 5.61400403
F 8.83085984 2.13691020 6.56065431
F 6.47423539 0.88711862 5.75666818
F 7.40456674 4.79460226 6.70331846
F 5.15079381 1.86389774 3.15053953
F 3.72450071 4.52158980 3.29320368
F 7.36465339 6.45207650 9.02411881
F 8.76466599 3.78044707 9.16678296
F 3.79069457 2.87805293 0.68707503
F 7.54733162 1.45621508 1.63372531
F 5.19070717 0.20642350 0.82973919
F 6.12103852 4.11390714 1.77638947
F 6.43432204 2.54459286 8.07746852
F 5.00802894 5.20228492 8.22013268
F 16.06942927 11.06849113 4.09718981
F 17.46944187 8.39686171 4.23985397
F 15.06252690 8.85585781 5.61400403
F 18.81916395 7.43401996 6.56065431
F 16.46253950 6.18422838 5.75666818
F 17.39287085 10.09171201 6.70331846
F 15.13909792 7.16100750 3.15053953
F 13.71280482 9.81869955 3.29320368
F 17.35295749 11.74918625 9.02411881
F 18.75297009 9.07755683 9.16678296
F 13.77899868 8.17516268 0.68707503
F 17.53563572 6.75332484 1.63372531
F 15.17901128 5.50353326 0.82973919
F 16.10934263 9.41101689 1.77638947
F 16.42262614 7.84170262 8.07746852
F 14.99633304 10.49939467 8.22013268
F 12.47988862 5.77138138 4.09718981
F 13.87990122 3.09975195 4.23985397
F 11.47298626 3.55874805 5.61400403
F 15.22962330 2.13691020 6.56065431
F 12.87299885 0.88711862 5.75666818
F 13.80333020 4.79460226 6.70331846
F 11.54955727 1.86389774 3.15053953
F 10.12326417 4.52158980 3.29320368
F 13.76341685 6.45207650 9.02411881
F 15.16342945 3.78044707 9.16678296
F 10.18945803 2.87805293 0.68707503
F 13.94609508 1.45621508 1.63372531
F 11.58947063 0.20642350 0.82973919
F 12.51980198 4.11390714 1.77638947
F 12.83308550 2.54459286 8.07746852
F 11.40679240 5.20228492 8.22013268
Ag 6.66783919 8.62635976 4.92692900
Ag 7.43068649 5.63745732 2.46346450
Ag 5.38431097 7.94566463 0.00000000
Ag 8.71421471 6.31815244 7.39039349
Ag 3.07829855 3.32925000 4.92692900
Ag 3.84114584 0.34034756 2.46346450
Ag 1.79477032 2.64855488 0.00000000
Ag 5.12467407 1.02104268 7.39039349
Ag 13.06660265 8.62635976 4.92692900
Ag 13.82944995 5.63745732 2.46346450
Ag 11.78307443 7.94566463 0.00000000
Ag 15.11297817 6.31815244 7.39039349
Ag 9.47706201 3.32925000 4.92692900
Ag 10.23990930 0.34034756 2.46346450
Ag 8.19353378 2.64855488 0.00000000
Ag 11.52343753 1.02104268 7.39039349
111
Lattice="12.79752692 0.00000000 0.00000000 7.17908129 10.59421951 0.00000000 2.56705645 1.36139024 9.85385799" Properties=species:S:1:pos:R:3 pbc="T T T" image=3 path_id=mp-761269_2_1_1_-1_0 chemical_system=Ag-F-Li source=z1_nebdft2k_barriers.lock.json
Li 11.26526806 5.97182914 4.92266679
Li 10.59314518 6.48231337 3.69519675
Li 9.21574391 9.07956045 3.69519675
Li 9.14129667 10.77040614 6.15866124
Li 11.87667341 7.16300849 8.62212574
Li 10.49927213 9.76025557 8.62212574
Li 9.23516971 7.49246394 1.23173225
Li 7.85776844 10.08971102 1.23173225
Li 7.00360454 1.18520362 3.69519675
Li 5.62620326 3.78245069 3.69519675
Li 6.92915729 2.87604931 6.15866124
Li 5.55175602 5.47329638 6.15866124
Li 8.28713276 1.86589874 8.62212574
Li 6.90973149 4.46314581 8.62212574
Li 5.64562907 2.19535419 1.23173225
Li 4.26822779 4.79260126 1.23173225
Li 16.99190864 6.48231337 3.69519675
Li 15.61450737 9.07956045 3.69519675
Li 16.91746140 8.17315907 6.15866124
Li 15.54006013 10.77040614 6.15866124
Li 18.27543687 7.16300849 8.62212574
Li 16.89803559 9.76025557 8.62212574
Li 15.63393317 7.49246394 1.23173225
Li 14.25653190 10.08971102 1.23173225
Li 13.40236800 1.18520362 3.69519675
Li 13.32792075 2.87604931 6.15866124
Li 11.95051948 5.47329638 6.15866124
Li 14.68589622 1.86589874 8.62212574
Li 13.30849495 4.46314581 8.62212574
Li 12.04439253 2.19535419 1.23173225
Li 10.66699125 4.79260126 1.23173225
F 9.67066581 11.06849113 4.09718981
F 11.07067841 8.39686171 4.23985397
F 8.66376344 8.85585781 5.61400403
F 12.42040049 7.43401996 6.56065431
F 10.06377604 6.18422838 5.75666818
F 10.99410739 10.09171201 6.70331846
F 8.74033446 7.16100750 3.15053953
F 7.31404136 9.81869955 3.29320368
F 10.95419403 11.74918625 9.02411881
F 12.35420663 9.07755683 9.16678296
F 7.38023522 8.17516268 0.68707503
F 11.13687226 6.75332484 1.63372531
F 8.78024782 5.50353326 0.82973919
F 9.71057917 9.41101689 1.77638947
F 10.02386268 7.84170262 8.07746852
F 8.59756958 10.49939467 8.22013268
F 6.08112516 5.77138138 4.09718981
F 7.48113776 3.09975195 4.23985397
F 5.07422280 3.55874805 5.61400403
F 8.83085984 2.13691020 6.56065431
F 6.47423539 0.88711862 5.75666818
F 7.40456674 4.79460226 6.70331846
F 5.15079381 1.86389774 3.15053953
F 3.72450071 4.52158980 3.29320368
F 7.36465339 6.45207650 9.02411881
F 8.76466599 3.78044707 9.16678296
F 3.79069457 2.87805293 0.68707503
F 7.54733162 1.45621508 1.63372531
F 5.19070717 0.20642350 0.82973919
F 6.12103852 4.11390714 1.77638947
F 6.43432204 2.54459286 8.07746852
F 5.00802894 5.20228492 8.22013268
F 16.06942927 11.06849113 4.09718981
F 17.46944187 8.39686171 4.23985397
F 15.06252690 8.85585781 5.61400403
F 18.81916395 7.43401996 6.56065431
F 16.46253950 6.18422838 5.75666818
F 17.39287085 10.09171201 6.70331846
F 15.13909792 7.16100750 3.15053953
F 13.71280482 9.81869955 3.29320368
F 17.35295749 11.74918625 9.02411881
F 18.75297009 9.07755683 9.16678296
F 13.77899868 8.17516268 0.68707503
F 17.53563572 6.75332484 1.63372531
F 15.17901128 5.50353326 0.82973919
F 16.10934263 9.41101689 1.77638947
F 16.42262614 7.84170262 8.07746852
F 14.99633304 10.49939467 8.22013268
F 12.47988862 5.77138138 4.09718981
F 13.87990122 3.09975195 4.23985397
F 11.47298626 3.55874805 5.61400403
F 15.22962330 2.13691020 6.56065431
F 12.87299885 0.88711862 5.75666818
F 13.80333020 4.79460226 6.70331846
F 11.54955727 1.86389774 3.15053953
F 10.12326417 4.52158980 3.29320368
F 13.76341685 6.45207650 9.02411881
F 15.16342945 3.78044707 9.16678296
F 10.18945803 2.87805293 0.68707503
F 13.94609508 1.45621508 1.63372531
F 11.58947063 0.20642350 0.82973919
F 12.51980198 4.11390714 1.77638947
F 12.83308550 2.54459286 8.07746852
F 11.40679240 5.20228492 8.22013268
Ag 6.66783919 8.62635976 4.92692900
Ag 7.43068649 5.63745732 2.46346450
Ag 5.38431097 7.94566463 0.00000000
Ag 8.71421471 6.31815244 7.39039349
Ag 3.07829855 3.32925000 4.92692900
Ag 3.84114584 0.34034756 2.46346450
Ag 1.79477032 2.64855488 0.00000000
Ag 5.12467407 1.02104268 7.39039349
Ag 13.06660265 8.62635976 4.92692900
Ag 13.82944995 5.63745732 2.46346450
Ag 11.78307443 7.94566463 0.00000000
Ag 15.11297817 6.31815244 7.39039349
Ag 9.47706201 3.32925000 4.92692900
Ag 10.23990930 0.34034756 2.46346450
Ag 8.19353378 2.64855488 0.00000000
Ag 11.52343753 1.02104268 7.39039349
111
Lattice="12.79752692 0.00000000 0.00000000 7.17908129 10.59421951 0.00000000 2.56705645 1.36139024 9.85385799" Properties=species:S:1:pos:R:3 pbc="T T T" image=4 path_id=mp-761269_2_1_1_-1_0 chemical_system=Ag-F-Li source=z1_nebdft2k_barriers.lock.json
Li 11.09409290 5.06999314 4.69723780
Li 10.59314518 6.48231337 3.69519675
Li 9.21574391 9.07956045 3.69519675
Li 9.14129667 10.77040614 6.15866124
Li 11.87667341 7.16300849 8.62212574
Li 10.49927213 9.76025557 8.62212574
Li 9.23516971 7.49246394 1.23173225
Li 7.85776844 10.08971102 1.23173225
Li 7.00360454 1.18520362 3.69519675
Li 5.62620326 3.78245069 3.69519675
Li 6.92915729 2.87604931 6.15866124
Li 5.55175602 5.47329638 6.15866124
Li 8.28713276 1.86589874 8.62212574
Li 6.90973149 4.46314581 8.62212574
Li 5.64562907 2.19535419 1.23173225
Li 4.26822779 4.79260126 1.23173225
Li 16.99190864 6.48231337 3.69519675
Li 15.61450737 9.07956045 3.69519675
Li 16.91746140 8.17315907 6.15866124
Li 15.54006013 10.77040614 6.15866124
Li 18.27543687 7.16300849 8.62212574
Li 16.89803559 9.76025557 8.62212574
Li 15.63393317 7.49246394 1.23173225
Li 14.25653190 10.08971102 1.23173225
Li 13.40236800 1.18520362 3.69519675
Li 13.32792075 2.87604931 6.15866124
Li 11.95051948 5.47329638 6.15866124
Li 14.68589622 1.86589874 8.62212574
Li 13.30849495 4.46314581 8.62212574
Li 12.04439253 2.19535419 1.23173225
Li 10.66699125 4.79260126 1.23173225
F 9.67066581 11.06849113 4.09718981
F 11.07067841 8.39686171 4.23985397
F 8.66376344 8.85585781 5.61400403
F 12.42040049 7.43401996 6.56065431
F 10.06377604 6.18422838 5.75666818
F 10.99410739 10.09171201 6.70331846
F 8.74033446 7.16100750 3.15053953
F 7.31404136 9.81869955 3.29320368
F 10.95419403 11.74918625 9.02411881
F 12.35420663 9.07755683 9.16678296
F 7.38023522 8.17516268 0.68707503
F 11.13687226 6.75332484 1.63372531
F 8.78024782 5.50353326 0.82973919
F 9.71057917 9.41101689 1.77638947
F 10.02386268 7.84170262 8.07746852
F 8.59756958 10.49939467 8.22013268
F 6.08112516 5.77138138 4.09718981
F 7.48113776 3.09975195 4.23985397
F 5.07422280 3.55874805 5.61400403
F 8.83085984 2.13691020 6.56065431
F 6.47423539 0.88711862 5.75666818
F 7.40456674 4.79460226 6.70331846
F 5.15079381 1.86389774 3.15053953
F 3.72450071 4.52158980 3.29320368
F 7.36465339 6.45207650 9.02411881
F 8.76466599 3.78044707 9.16678296
F 3.79069457 2.87805293 0.68707503
F 7.54733162 1.45621508 1.63372531
F 5.19070717 0.20642350 0.82973919
F 6.12103852 4.11390714 1.77638947
F 6.43432204 2.54459286 8.07746852
F 5.00802894 5.20228492 8.22013268
F 16.06942927 11.06849113 4.09718981
F 17.46944187 8.39686171 4.23985397
F 15.06252690 8.85585781 5.61400403
F 18.81916395 7.43401996 6.56065431
F 16.46253950 6.18422838 5.75666818
F 17.39287085 10.09171201 6.70331846
F 15.13909792 7.16100750 3.15053953
F 13.71280482 9.81869955 3.29320368
F 17.35295749 11.74918625 9.02411881
F 18.75297009 9.07755683 9.16678296
F 13.77899868 8.17516268 0.68707503
F 17.53563572 6.75332484 1.63372531
F 15.17901128 5.50353326 0.82973919
F 16.10934263 9.41101689 1.77638947
F 16.42262614 7.84170262 8.07746852
F 14.99633304 10.49939467 8.22013268
F 12.47988862 5.77138138 4.09718981
F 13.87990122 3.09975195 4.23985397
F 11.47298626 3.55874805 5.61400403
F 15.22962330 2.13691020 6.56065431
F 12.87299885 0.88711862 5.75666818
F 13.80333020 4.79460226 6.70331846
F 11.54955727 1.86389774 3.15053953
F 10.12326417 4.52158980 3.29320368
F 13.76341685 6.45207650 9.02411881
F 15.16342945 3.78044707 9.16678296
F 10.18945803 2.87805293 0.68707503
F 13.94609508 1.45621508 1.63372531
F 11.58947063 0.20642350 0.82973919
F 12.51980198 4.11390714 1.77638947
F 12.83308550 2.54459286 8.07746852
F 11.40679240 5.20228492 8.22013268
Ag 6.66783919 8.62635976 4.92692900
Ag 7.43068649 5.63745732 2.46346450
Ag 5.38431097 7.94566463 0.00000000
Ag 8.71421471 6.31815244 7.39039349
Ag 3.07829855 3.32925000 4.92692900
Ag 3.84114584 0.34034756 2.46346450
Ag 1.79477032 2.64855488 0.00000000
Ag 5.12467407 1.02104268 7.39039349
Ag 13.06660265 8.62635976 4.92692900
Ag 13.82944995 5.63745732 2.46346450
Ag 11.78307443 7.94566463 0.00000000
Ag 15.11297817 6.31815244 7.39039349
Ag 9.47706201 3.32925000 4.92692900
Ag 10.23990930 0.34034756 2.46346450
Ag 8.19353378 2.64855488 0.00000000
Ag 11.52343753 1.02104268 7.39039349
111
Lattice="12.79752692 0.00000000 0.00000000 7.17908129 10.59421951 0.00000000 2.56705645 1.36139024 9.85385799" Properties=species:S:1:pos:R:3 pbc="T T T" image=5 path_id=mp-761269_2_1_1_-1_0 chemical_system=Ag-F-Li source=z1_nebdft2k_barriers.lock.json
Li 11.55446581 4.42565285 4.18778150
Li 10.59314518 6.48231337 3.69519675
Li 9.21574391 9.07956045 3.69519675
Li 9.14129667 10.77040614 6.15866124
Li 11.87667341 7.16300849 8.62212574
Li 10.49927213 9.76025557 8.62212574
Li 9.23516971 7.49246394 1.23173225
Li 7.85776844 10.08971102 1.23173225
Li 7.00360454 1.18520362 3.69519675
Li 5.62620326 3.78245069 3.69519675
Li 6.92915729 2.87604931 6.15866124
Li 5.55175602 5.47329638 6.15866124
Li 8.28713276 1.86589874 8.62212574
Li 6.90973149 4.46314581 8.62212574
Li 5.64562907 2.19535419 1.23173225
Li 4.26822779 4.79260126 1.23173225
Li 16.99190864 6.48231337 3.69519675
Li 15.61450737 9.07956045 3.69519675
Li 16.91746140 8.17315907 6.15866124
Li 15.54006013 10.77040614 6.15866124
Li 18.27543687 7.16300849 8.62212574
Li 16.89803559 9.76025557 8.62212574
Li 15.63393317 7.49246394 1.23173225
Li 14.25653190 10.08971102 1.23173225
Li 13.40236800 1.18520362 3.69519675
Li 13.32792075 2.87604931 6.15866124
Li 11.95051948 5.47329638 6.15866124
Li 14.68589622 1.86589874 8.62212574
Li 13.30849495 4.46314581 8.62212574
Li 12.04439253 2.19535419 1.23173225
Li 10.66699125 4.79260126 1.23173225
F 9.67066581 11.06849113 4.09718981
F 11.07067841 8.39686171 4.23985397
F 8.66376344 8.85585781 5.61400403
F 12.42040049 7.43401996 6.56065431
F 10.06377604 6.18422838 5.75666818
F 10.99410739 10.09171201 6.70331846
F 8.74033446 7.16100750 3.15053953
F 7.31404136 9.81869955 3.29320368
F 10.95419403 11.74918625 9.02411881
F 12.35420663 9.07755683 9.16678296
F 7.38023522 8.17516268 0.68707503
F 11.13687226 6.75332484 1.63372531
F 8.78024782 5.50353326 0.82973919
F 9.71057917 9.41101689 1.77638947
F 10.02386268 7.84170262 8.07746852
F 8.59756958 10.49939467 8.22013268
F 6.08112516 5.77138138 4.09718981
F 7.48113776 3.09975195 4.23985397
F 5.07422280 3.55874805 5.61400403
F 8.83085984 2.13691020 6.56065431
F 6.47423539 0.88711862 5.75666818
F 7.40456674 4.79460226 6.70331846
F 5.15079381 1.86389774 3.15053953
F 3.72450071 4.52158980 3.29320368
F 7.36465339 6.45207650 9.02411881
F 8.76466599 3.78044707 9.16678296
F 3.79069457 2.87805293 0.68707503
F 7.54733162 1.45621508 1.63372531
F 5.19070717 0.20642350 0.82973919
F 6.12103852 4.11390714 1.77638947
F 6.43432204 2.54459286 8.07746852
F 5.00802894 5.20228492 8.22013268
F 16.06942927 11.06849113 4.09718981
F 17.46944187 8.39686171 4.23985397
F 15.06252690 8.85585781 5.61400403
F 18.81916395 7.43401996 6.56065431
F 16.46253950 6.18422838 5.75666818
F 17.39287085 10.09171201 6.70331846
F 15.13909792 7.16100750 3.15053953
F 13.71280482 9.81869955 3.29320368
F 17.35295749 11.74918625 9.02411881
F 18.75297009 9.07755683 9.16678296
F 13.77899868 8.17516268 0.68707503
F 17.53563572 6.75332484 1.63372531
F 15.17901128 5.50353326 0.82973919
F 16.10934263 9.41101689 1.77638947
F 16.42262614 7.84170262 8.07746852
F 14.99633304 10.49939467 8.22013268
F 12.47988862 5.77138138 4.09718981
F 13.87990122 3.09975195 4.23985397
F 11.47298626 3.55874805 5.61400403
F 15.22962330 2.13691020 6.56065431
F 12.87299885 0.88711862 5.75666818
F 13.80333020 4.79460226 6.70331846
F 11.54955727 1.86389774 3.15053953
F 10.12326417 4.52158980 3.29320368
F 13.76341685 6.45207650 9.02411881
F 15.16342945 3.78044707 9.16678296
F 10.18945803 2.87805293 0.68707503
F 13.94609508 1.45621508 1.63372531
F 11.58947063 0.20642350 0.82973919
F 12.51980198 4.11390714 1.77638947
F 12.83308550 2.54459286 8.07746852
F 11.40679240 5.20228492 8.22013268
Ag 6.66783919 8.62635976 4.92692900
Ag 7.43068649 5.63745732 2.46346450
Ag 5.38431097 7.94566463 0.00000000
Ag 8.71421471 6.31815244 7.39039349
Ag 3.07829855 3.32925000 4.92692900
Ag 3.84114584 0.34034756 2.46346450
Ag 1.79477032 2.64855488 0.00000000
Ag 5.12467407 1.02104268 7.39039349
Ag 13.06660265 8.62635976 4.92692900
Ag 13.82944995 5.63745732 2.46346450
Ag 11.78307443 7.94566463 0.00000000
Ag 15.11297817 6.31815244 7.39039349
Ag 9.47706201 3.32925000 4.92692900
Ag 10.23990930 0.34034756 2.46346450
Ag 8.19353378 2.64855488 0.00000000
Ag 11.52343753 1.02104268 7.39039349
111
Lattice="12.79752692 0.00000000 0.00000000 7.17908129 10.59421951 0.00000000 2.56705645 1.36139024 9.85385799" Properties=species:S:1:pos:R:3 pbc="T T T" image=6 path_id=mp-761269_2_1_1_-1_0 chemical_system=Ag-F-Li source=z1_nebdft2k_barriers.lock.json
Li 12.02496672 3.78245069 3.69519675
Li 10.59314518 6.48231337 3.69519675
Li 9.21574391 9.07956045 3.69519675
Li 9.14129667 10.77040614 6.15866124
Li 11.87667341 7.16300849 8.62212574
Li 10.49927213 9.76025557 8.62212574
Li 9.23516971 7.49246394 1.23173225
Li 7.85776844 10.08971102 1.23173225
Li 7.00360454 1.18520362 3.69519675
Li 5.62620326 3.78245069 3.69519675
Li 6.92915729 2.87604931 6.15866124
Li 5.55175602 5.47329638 6.15866124
Li 8.28713276 1.86589874 8.62212574
Li 6.90973149 4.46314581 8.62212574
Li 5.64562907 2.19535419 1.23173225
Li 4.26822779 4.79260126 1.23173225
Li 16.99190864 6.48231337 3.69519675
Li 15.61450737 9.07956045 3.69519675
Li 16.91746140 8.17315907 6.15866124
Li 15.54006013 10.77040614 6.15866124
Li 18.27543687 7.16300849 8.62212574
Li 16.89803559 9.76025557 8.62212574
Li 15.63393317 7.49246394 1.23173225
Li 14.25653190 10.08971102 1.23173225
Li 13.40236800 1.18520362 3.69519675
Li 13.32792075 2.87604931 6.15866124
Li 11.95051948 5.47329638 6.15866124
Li 14.68589622 1.86589874 8.62212574
Li 13.30849495 4.46314581 8.62212574
Li 12.04439253 2.19535419 1.23173225
Li 10.66699125 4.79260126 1.23173225
F 9.67066581 11.06849113 4.09718981
F 11.07067841 8.39686171 4.23985397
F 8.66376344 8.85585781 5.61400403
F 12.42040049 7.43401996 6.56065431
F 10.06377604 6.18422838 5.75666818
F 10.99410739 10.09171201 6.70331846
F 8.74033446 7.16100750 3.15053953
F 7.31404136 9.81869955 3.29320368
F 10.95419403 11.74918625 9.02411881
F 12.35420663 9.07755683 9.16678296
F 7.38023522 8.17516268 0.68707503
F 11.13687226 6.75332484 1.63372531
F 8.78024782 5.50353326 0.82973919
F 9.71057917 9.41101689 1.77638947
F 10.02386268 7.84170262 8.07746852
F 8.59756958 10.49939467 8.22013268
F 6.08112516 5.77138138 4.09718981
F 7.48113776 3.09975195 4.23985397
F 5.07422280 3.55874805 5.61400403
F 8.83085984 2.13691020 6.56065431
F 6.47423539 0.88711862 5.75666818
F 7.40456674 4.79460226 6.70331846
F 5.15079381 1.86389774 3.15053953
F 3.72450071 4.52158980 3.29320368
F 7.36465339 6.45207650 9.02411881
F 8.76466599 3.78044707 9.16678296
F 3.79069457 2.87805293 0.68707503
F 7.54733162 1.45621508 1.63372531
F 5.19070717 0.20642350 0.82973919
F 6.12103852 4.11390714 1.77638947
F 6.43432204 2.54459286 8.07746852
F 5.00802894 5.20228492 8.22013268
F 16.06942927 11.06849113 4.09718981
F 17.46944187 8.39686171 4.23985397
F 15.06252690 8.85585781 5.61400403
F 18.81916395 7.43401996 6.56065431
F 16.46253950 6.18422838 5.75666818
F 17.39287085 10.09171201 6.70331846
F 15.13909792 7.16100750 3.15053953
F 13.71280482 9.81869955 3.29320368
F 17.35295749 11.74918625 9.02411881
F 18.75297009 9.07755683 9.16678296
F 13.77899868 8.17516268 0.68707503
F 17.53563572 6.75332484 1.63372531
F 15.17901128 5.50353326 0.82973919
F 16.10934263 9.41101689 1.77638947
F 16.42262614 7.84170262 8.07746852
F 14.99633304 10.49939467 8.22013268
F 12.47988862 5.77138138 4.09718981
F 13.87990122 3.09975195 4.23985397
F 11.47298626 3.55874805 5.61400403
F 15.22962330 2.13691020 6.56065431
F 12.87299885 0.88711862 5.75666818
F 13.80333020 4.79460226 6.70331846
F 11.54955727 1.86389774 3.15053953
F 10.12326417 4.52158980 3.29320368
F 13.76341685 6.45207650 9.02411881
F 15.16342945 3.78044707 9.16678296
F 10.18945803 2.87805293 0.68707503
F 13.94609508 1.45621508 1.63372531
F 11.58947063 0.20642350 0.82973919
F 12.51980198 4.11390714 1.77638947
F 12.83308550 2.54459286 8.07746852
F 11.40679240 5.20228492 8.22013268
Ag 6.66783919 8.62635976 4.92692900
Ag 7.43068649 5.63745732 2.46346450
Ag 5.38431097 7.94566463 0.00000000
Ag 8.71421471 6.31815244 7.39039349
Ag 3.07829855 3.32925000 4.92692900
Ag 3.84114584 0.34034756 2.46346450
Ag 1.79477032 2.64855488 0.00000000
Ag 5.12467407 1.02104268 7.39039349
Ag 13.06660265 8.62635976 4.92692900
Ag 13.82944995 5.63745732 2.46346450
Ag 11.78307443 7.94566463 0.00000000
Ag 15.11297817 6.31815244 7.39039349
Ag 9.47706201 3.32925000 4.92692900
Ag 10.23990930 0.34034756 2.46346450
Ag 8.19353378 2.64855488 0.00000000
Ag 11.52343753 1.02104268 7.39039349
