12000
Lattice="56.603387 0.0 0.0 0.0 56.603387 0.0 0.0 0.0 56.603387" Properties=species:S:1:pos:R:3 pbc="T T T" comment="Amorphous SiO2, melt-quench (Vashishta 1990 potential, LAMMPS): 5000 K melt 15 ps, quench to 300 K in 50 ps, NPT 0 bar 10 ps, minimized"
Si    45.589639     7.735525     0.881854
Si     9.123100     6.846945    54.493574
Si    46.313868    51.729645    20.830928
Si    55.822930    36.919952    38.583871
Si    18.664068    10.790343    52.273928
Si    14.306110    32.499754    32.241901
Si    29.073041    30.579168     2.012584
Si    36.561442    29.201179    42.011398
Si    11.248182    26.939579    52.010602
Si    43.463122     4.443703    37.795731
Si    49.774277    11.288317    45.257221
Si    19.854879    54.907034    11.624432
Si    44.685285    22.253508    22.473186
Si    30.233963    17.249855    17.004468
Si    23.635379    16.498088    49.999220
Si    29.816087    34.817869    15.272816
Si    40.062510     6.684214    28.502503
Si    33.391682    49.466613     1.648866
Si    30.649797    48.824401    25.938578
Si    19.112601    11.295847    22.654002
Si    46.165150    27.890101    15.165132
Si    27.439628    13.647200    36.684646
Si     4.035148    16.103257    51.502467
Si     1.871925    49.074755    16.015977
Si    32.582522    36.228397    46.494385
Si     3.002176    35.908258     5.090116
Si    50.719884    30.066477     3.741311
Si    35.358619    30.296758    51.100634
Si    31.060045     7.782583    29.324640
Si    25.104804    18.732981    56.511728
Si     8.140437    39.248663    13.769505
Si    26.242165    48.527308    44.332322
Si    16.088749    28.034084    13.537251
Si    54.274526     1.026083    35.399183
Si     6.593878    19.002343    49.981728
Si    16.780011    21.815746    14.279793
Si    43.512576    38.609516    49.334066
Si    38.074254    38.600696    53.997503
Si    46.714319    14.188973    45.840114
Si    38.183397    44.629704    32.970397
Si    28.134702    41.691788     4.092567
Si     5.782130     3.023568    15.736899
Si    13.755232    37.275422     6.007643
Si    50.084641    37.397877    49.529177
Si     4.308183     7.999264     7.370134
Si     8.549714     4.424151    15.532611
Si     3.071112     5.794361    32.292765
Si    11.193657    38.647308    13.322048
Si    11.152491    16.582662    55.328498
Si    41.049990     4.267763    39.406980
Si    55.180527    17.861609    37.145825
Si    20.525939    34.445009    55.964140
Si    22.205145    46.849089    48.585881
Si    13.756640    42.817498    13.945291
Si    52.744911    39.844145    46.902092
Si    33.528475    43.051144    20.835520
Si    30.434690    50.375537    35.227447
Si    22.517689    34.279038     1.891529
Si    40.756421    52.311664    54.268490
Si    32.536270    12.673070    17.236927
Si    30.809764    53.723411    40.019359
Si     5.026725    12.694297    25.826000
Si    44.228725    48.982883    46.269472
Si    28.208055    46.657144    18.388526
Si     5.385493    13.006013    55.506553
Si    17.268367    46.926859    18.548850
Si    15.827250     4.435946    25.674029
Si    22.468559    42.304595    45.725880
Si     9.374291    38.427447    26.521676
Si     7.719786    23.001301    43.197937
Si     6.161344    53.282199    53.371099
Si     8.400588     4.775714    29.155781
Si    46.952431    34.060237    47.460380
Si    49.641980    45.944432    19.062131
Si    41.762835    27.285725    30.072125
Si    50.784772    37.511450    38.735176
Si    20.847383     9.489569    11.633514
Si    32.915650    53.205926     8.527914
Si    14.023516    44.897381     2.433723
Si    28.008900    26.076207    36.018169
Si    14.659877    45.063719    18.204985
Si    28.456874    50.457494    24.440764
Si     3.785404    38.562866    39.802495
Si     4.969181    51.888350    41.332779
Si    24.626304    34.826258    10.200093
Si    31.829848    34.205677    51.725804
Si    23.674055    56.258398    31.698593
Si    44.015584    42.434636    14.202389
Si    23.632719     1.495424    16.753186
Si    55.440670     0.131580     7.036030
Si    24.521537    44.043299    44.230083
Si    32.318504    16.059240    31.784011
Si    45.802080    54.225458    56.526338
Si    56.585199    36.266408    49.612482
Si    19.774197    49.753017     0.695327
Si    17.280844    39.698784    35.392383
Si     1.378991     1.604009     6.321448
Si    25.425918    46.208295     0.692438
Si    17.033325    54.144404    42.880974
Si    19.848044    32.338683    34.727623
Si    34.331066     5.713724    43.981039
Si    42.587630     3.177933    26.435720
Si    37.032311    27.889191    56.015144
Si    55.833296    28.245502    21.641891
Si    37.844765     3.105280    17.617987
Si    16.982086    51.698348    31.655357
Si    20.998278    35.200621    15.584263
Si    31.784155    35.963495    54.234990
Si    47.403429    26.260642    10.099319
Si    29.648349    54.346261     3.736886
Si    10.830629    42.344115    35.032038
Si    39.424464    49.443625    21.750034
Si     3.357301    27.044371    35.399596
Si    28.167144     1.122750    27.012987
Si    55.282248    53.947601    32.205994
Si     5.306825    31.738292    12.010928
Si    12.317632    38.734308    20.785348
Si    36.552614     9.491710    36.008862
Si    51.920727    44.505721    29.268308
Si    20.864401    11.216040    45.524608
Si     6.830551    54.083262    16.843006
Si    29.112374    19.239176    29.116048
Si     7.211537    33.857356    29.740380
Si     2.548620    43.172609    11.336178
Si    50.446696    10.332995    13.683708
Si    19.538355     3.013704    17.762804
Si    27.570068    12.157727    53.900447
Si    23.572731    48.758102    38.583683
Si    44.748256    35.433426    42.941878
Si    10.965985    53.645127    28.354034
Si     2.536503    37.248028    35.312144
Si    33.181483    51.702918    24.154745
Si    36.762353    10.505451    55.206779
Si    19.849678    43.208772    32.630959
Si    56.168562    48.469096    38.455121
Si    27.366791    18.194143    16.252637
Si    22.519405    23.762318     9.323493
Si    45.217060    22.411184     9.995638
Si    32.701875     4.276639    31.030880
Si     2.036143    21.787189    55.159119
Si    34.411968    14.701967     9.800665
Si    37.228542    46.749563    11.533255
Si    11.070640    27.916253    37.792236
Si     3.017930     7.154758    12.282247
Si    16.252209     1.940219    30.594156
Si     7.568007     4.961347    34.096725
Si    19.651137     6.852744    47.002103
Si    26.255912     5.895972    53.581260
Si     4.467983    25.309045    39.136727
Si    33.928460    55.864037    49.364982
Si    39.047880    51.415184    25.742781
Si    26.468266     1.346656    17.655700
Si    54.514780    18.209995    27.405609
Si     4.567096    33.135408     4.890701
Si    47.121898     8.074260     4.565142
Si    22.931903    22.382855     5.754734
Si    14.519901    11.227709    13.051622
Si    47.557232    35.426091    21.897966
Si    20.989445    28.746480     9.240193
Si    48.489017    53.089809    16.284874
Si    49.199382     9.016007     6.674013
Si    13.954224    22.489125    13.218160
Si    53.117824    39.425150    52.509445
Si    33.989597    40.509222    55.295210
Si    54.927422    29.068925     9.307421
Si    49.663704    50.309953    11.629231
Si     2.068164    21.334166     8.291209
Si    51.011944    55.939802    27.953347
Si    36.855913    18.226432    19.216117
Si    28.900548    44.855740     4.333057
Si    52.836239    33.182111     9.341665
Si    55.888918    16.007644    53.069421
Si    55.676150     4.714539    33.734740
Si    23.538530    27.969912    12.593185
Si    39.846815     3.149297     0.526535
Si     7.839872    44.217052    46.537108
Si    56.256053    14.064671    50.550045
Si    39.687707    18.129920    31.853369
Si    48.497312    16.758901    31.610209
Si     4.360811    14.443289     1.366088
Si    43.480343    41.712830    46.195796
Si    52.660443    52.807298    33.435850
Si    50.591888    42.978364    43.621415
Si     0.635291    46.407445    34.513621
Si    53.239468    40.516224     3.850698
Si    43.015190    14.156156    44.015286
Si    38.585690     6.276557    47.179956
Si    19.381419    20.273593    10.088728
Si    37.406028    39.580684     4.865243
Si     9.985686    40.541657     3.800490
Si    53.543266    44.496366    26.752124
Si    31.575727     0.344930    11.895263
Si    15.346128    25.614669    54.907921
Si    53.819826    42.320226    17.446654
Si     9.376330    42.526077    37.833060
Si     0.405427     8.664688     1.932336
Si    16.193424    30.605610    11.691897
Si    40.806771    34.951382    39.984289
Si     2.599258    18.273466    49.549425
Si    31.402156    34.094388    39.178410
Si     2.724387    22.413483    21.333374
Si    30.360664     3.777966    18.907668
Si    35.612759    54.406416     7.902418
Si     1.991648    44.331140    15.764560
Si    25.849744    35.537058    13.101285
Si     3.450375    52.044287    19.612044
Si    24.352873    37.709851    48.993120
Si    22.031167    48.259633    41.321899
Si    21.985735    55.581799    19.902411
Si    22.382295    22.677523    23.119627
Si    12.382685     2.626504    17.423272
Si    23.063230    30.514658    10.841967
Si    25.597397    13.408006    40.743945
Si    22.082089    50.056947     7.864234
Si     0.264886    34.053542     8.101939
Si     0.235471    37.531994     5.569479
Si    36.747110    18.645268    32.112875
Si    46.950019    45.320298    45.772105
Si     6.926743    17.033966    52.314987
Si    15.620485    14.755124    48.499164
Si     0.766840    34.279192    42.593266
Si    42.457202    10.895955    51.478213
Si    15.562111     8.538591    37.848859
Si    20.662433    14.892800    54.139157
Si    41.867004    48.310127    26.135587
Si    14.428705     5.978997    48.905691
Si    16.496915    40.328678     8.398685
Si    19.295903    45.917494    48.309075
Si    46.195305    49.130263     7.573366
Si    38.369352     1.994689    10.039770
Si    27.147412    54.160249    23.170638
Si    51.266893    25.291147    53.177232
Si    16.481447    38.361241    51.376089
Si    32.269001    17.824242    55.733689
Si    24.756447    30.714858    45.284490
Si    30.023751    47.437726    20.864017
Si    45.454006    15.208074    53.965400
Si    28.833100    21.511045    39.529338
Si    46.889158     9.997764    17.936375
Si    55.895502     2.244860    22.225021
Si    10.653049    14.370199    29.836870
Si    47.762771    40.524367    29.797233
Si     6.944669     0.429827    33.339141
Si    25.445326    39.354655    32.967046
Si    24.173419    48.032854    20.376557
Si    13.981691    11.136663    24.929502
Si    27.879451    53.118008    30.706096
Si    46.780521    30.854953    27.122750
Si    43.838859    44.720042     5.930648
Si     8.414560    46.937061    36.107536
Si    48.656335    25.990598    38.237034
Si    12.934779    19.717009     2.378116
Si    24.969256    44.361173     3.062025
Si    46.493361    12.377624    19.907846
Si    27.880464    31.087084     8.960055
Si    26.489618     1.093115    12.293364
Si    33.637892    28.098875     6.635859
Si    23.540293    25.558233    22.461425
Si    48.993771    35.115828    33.830789
Si    54.921003    31.195184    54.978424
Si    54.649187    23.108991    56.013875
Si     2.946010    11.781320    47.019065
Si    42.686157    35.855626    24.018088
Si    32.852765    13.332685     1.614590
Si    19.660641    43.265996    44.503392
Si    53.051555    10.612782    22.445906
Si    42.998866    33.294781    22.322679
Si    20.368891    17.501595    46.149797
Si     0.302008    49.049572    42.973247
Si    56.429045    31.832976    15.571555
Si    10.209932     7.894738    22.441244
Si     4.352218     4.259479    48.850059
Si    19.222394    46.185331    37.901585
Si    46.127946    43.257662    38.321127
Si    24.177977    29.949079    51.173410
Si    13.223843    54.615883    11.714619
Si    10.190800    40.825679     0.680063
Si     6.933036    56.209647    11.678442
Si    49.680296    26.761076    24.943294
Si    29.159131    55.332594    28.805304
Si    36.787177     6.105752    17.767476
Si    53.498561    51.668533    27.941808
Si    45.621635    52.627249    33.128590
Si     7.667577    36.194508    19.724761
Si    43.930943    25.790643    31.835327
Si    37.434722     2.113508     4.711688
Si    35.374840    47.943924     9.128478
Si     9.241126    23.251834    19.311082
Si    46.450183    18.752226    32.703060
Si     4.229203    46.006322    27.434411
Si    47.903228     4.628734    39.952594
Si    33.764882    11.338148    55.911527
Si    52.577601    12.538240    24.727350
Si    15.907834    21.277965    19.326224
Si    31.977119    39.346706    34.961439
Si    41.682858    39.588766    44.797010
Si    32.105465    30.375551     7.976396
Si    43.689185     1.427470    37.436817
Si    22.939098     9.644287    20.089894
Si    55.003790    50.858744     4.271063
Si    11.396245    27.325697    29.358243
Si    25.460212    26.701420    14.566667
Si    38.831531    53.873251    50.516643
Si    36.708999    13.661561    23.119271
Si    29.733071     2.951635     4.215384
Si    12.705183     4.549122    42.594903
Si    10.822803     7.833166    19.309867
Si    37.307061    27.344851    10.157580
Si    27.343671    53.404035    42.749881
Si     9.145329    35.226972    22.212720
Si    29.049618    53.810815    17.628238
Si    45.319550     3.474554    30.788347
Si    39.739294    46.164692    35.046073
Si    48.520836    32.040096     3.925903
Si    33.543756    54.745252    15.719188
Si    22.555439     9.026632    28.410168
Si    48.836725    45.411523    21.986570
Si    25.270581    24.389612    51.337420
Si    48.607681     3.446442    12.476760
Si     8.076521    20.810047    31.172902
Si    26.916965     9.793495     1.437300
Si    18.529102    22.680187    32.323811
Si    56.415386    33.246895    45.414615
Si    42.189575    32.201952    36.266906
Si    56.272277    28.227172    51.710961
Si    36.301772    18.521078    13.348829
Si    52.135609     7.677696    42.646035
Si     1.577439    18.858448    40.616833
Si     4.150205    38.689792    54.402314
Si    34.955734    10.541643     8.803788
Si     3.482353    33.512958    49.257375
Si    51.345571    54.921210    38.130945
Si     5.754309     0.401501    43.218010
Si    50.484990    51.696956    53.892135
Si    32.083131    53.532688    18.058537
Si    27.057442     6.979182    38.097782
Si     2.532665     0.686400    27.183531
Si    19.822481     5.215002    29.138611
Si    54.711190    38.236887    45.022096
Si    20.734426    43.545907    52.930612
Si    54.763644    14.299282     6.457466
Si    47.847891     8.590303     9.411099
Si     1.143545    36.687164     9.309091
Si    16.834965     8.508316    44.498168
Si    12.560998    24.196087    44.052363
Si    52.388696     7.623348    52.460841
Si    53.466294    33.254860    45.103170
Si    12.954422    32.371817    55.656736
Si    28.077794     3.909419    42.841903
Si     9.505450    32.229382     6.585835
Si    38.552888    17.376181    48.715715
Si    32.206296    36.638730     1.585178
Si    50.446789    13.017907     9.080366
Si    36.703751    47.323996    45.765072
Si    17.788517    27.908895     2.715176
Si    12.089588    17.036922     3.768275
Si    55.653514    48.967460    49.768547
Si    31.093338    42.376568    50.549583
Si    16.144062    39.239747    30.576545
Si    51.701147    12.954223    20.703523
Si    47.470222    45.671326    26.823979
Si    43.801043    36.072204    40.086719
Si    16.909480    37.151426     8.811535
Si    11.092513    32.306066    31.936547
Si    38.262697     0.313337    40.458324
Si    38.034659    19.895812    36.078650
Si    55.219475    51.814862     9.306028
Si    25.912667    41.278225    24.328898
Si    29.749533    45.746848    45.989946
Si    25.130364    56.216065    20.030414
Si     5.321500     1.633907     3.603617
Si    19.937510     6.518065    35.898906
Si    15.937107    42.583027    35.013370
Si     0.534716    46.385632    50.000789
Si    36.346996    48.036254    24.599168
Si    24.475426    17.696823    16.781873
Si    25.482309    18.345582    38.635075
Si    15.891503    43.721498    15.822999
Si    27.147453    29.467755    43.594055
Si    39.318378    41.740089     6.129328
Si    42.299281    22.886845    15.561693
Si    13.200993    41.393792    21.870286
Si    51.151172    39.045953    30.629428
Si    20.057271    42.599424    11.354382
Si    46.869202     0.629543     4.962047
Si    35.890093    32.861906    49.612364
Si    11.301683     3.015817    22.900410
Si    51.897327    36.590435    24.541582
Si    17.653734     6.967238     8.765009
Si    15.573359    25.887922    34.326385
Si    35.933165     3.477216    42.300800
Si    14.954656    42.218046    42.593104
Si    13.443452    26.850735    48.159076
Si    38.196592    43.625650     8.338447
Si    25.964426     1.414754     1.623385
Si    33.350951    36.372464    39.611800
Si    34.926739    19.496108    56.301278
Si    52.379768    50.861689    51.566195
Si    33.337641    33.667270    26.695442
Si    47.029099    51.250560     5.676724
Si    42.867967    11.382794    45.209722
Si    35.971118    39.558323    43.242747
Si    41.690600     8.863960    35.801232
Si     4.736273    18.629152     4.739579
Si    37.967783     0.871205    36.105277
Si    13.654802    30.429346     4.555613
Si    54.146556     2.392862    26.852306
Si    46.579069    47.937881    53.355303
Si    37.998467    17.358460     9.352651
Si    48.953373    48.685750     8.977029
Si    14.916340     0.530799     0.939629
Si    18.090584    25.423449    20.196084
Si     6.087011    48.870482    35.056691
Si    27.178330    39.168526    49.549621
Si    16.587756    27.169216    38.229608
Si    45.851445    49.190751    19.243787
Si     7.203310    26.493764    27.769476
Si    53.291904    24.899823     4.023743
Si    29.018874     1.232361    10.176681
Si    40.706681    50.057466    49.235949
Si    45.358848    17.479450    24.687864
Si    55.262421     7.279336    24.803118
Si    21.207285    29.618576    41.101895
Si    51.738547     6.881927    10.598160
Si    13.437186    13.328389    15.239389
Si    53.913530    44.876836    36.855477
Si    42.187381     6.723238    20.418581
Si    11.427276    37.607564    31.992235
Si    35.462022    37.535949    27.357980
Si    49.629113    14.281829    45.826267
Si    22.278115     4.106814    10.234455
Si    15.272502    39.872957     5.728005
Si    28.854018    41.449091    18.359189
Si    15.101366     9.530862    15.543897
Si    37.174647    21.304028    43.790488
Si    36.590447    33.074837     1.079914
Si    15.579958     5.448947    10.248586
Si    34.187787    38.957836    16.886590
Si     3.490584    39.646829    19.456203
Si    22.181273    47.102470     3.438328
Si     9.916513    11.399672    49.849960
Si    40.721657     3.041364    16.305413
Si    10.393652    21.524332     3.104435
Si    50.136669    54.763619    54.505916
Si    20.509889    27.000740    32.629316
Si    29.142152     3.743739    34.980590
Si    46.143070    19.273077    26.852199
Si    40.750843    33.380309    17.629722
Si    26.481342    11.632630    45.955242
Si    49.192753    37.147149    53.660085
Si    12.533928    44.023447    20.392742
Si    16.995346    41.990018    48.909827
Si    23.342178    51.113840    56.092622
Si    20.979967    54.018512    17.328785
Si    41.225451    54.514688    26.899553
Si    56.281314    29.796754     4.709123
Si    26.126563    30.506256    38.255138
Si    16.361328    26.490492    10.832102
Si    34.241558    24.114022     4.582981
Si    53.624481    31.945066    28.057854
Si    18.205645    23.349076    40.687629
Si    35.647630    47.566278     0.839635
Si    20.895733    12.957029    32.202337
Si    39.129083    43.554755    56.169366
Si     0.796678    25.666151    13.105057
Si    36.057698    52.136489    12.834939
Si     0.229534    32.990263     2.462303
Si     1.927308    39.990260    31.406105
Si     1.601217    48.601912    31.143349
Si    51.451645    41.727156    39.664661
Si    40.506124    25.736811    36.043516
Si    17.620104    36.652287     3.451333
Si    11.517759    23.239617    27.789384
Si    35.143032    38.946965    35.055560
Si    32.034118     6.374109     5.237517
Si    11.086534    33.818888    35.647843
Si    39.192516    51.114989     9.301617
Si    34.641489     5.464980    55.928598
Si    40.144065    44.937069    37.973968
Si    23.358282     9.984993    54.787233
Si    34.612148    53.784091    51.461119
Si    32.514131    53.665391    37.317377
Si    27.266692    20.597218     5.094961
Si    46.023394    25.316925    16.693498
Si    52.387646    49.677682    13.027573
Si    14.420363    46.915300    21.805102
Si    47.826672    27.086990    56.211382
Si    54.395695     8.341734    11.154554
Si    34.913032    10.839666    16.827575
Si    49.131115    24.370260    26.641215
Si    47.783565    13.536897    26.905920
Si    13.266763    28.028915    34.365557
Si     5.121317    15.422448    13.926398
Si    34.951945    23.997872     1.637161
Si     9.300299    36.141462    53.501270
Si    22.114431    28.741700    30.937898
Si    45.122926    55.844473    29.646763
Si    28.828824    35.246703    23.337557
Si    50.259465    30.351430    22.284467
Si    10.301326     4.075789    27.006014
Si    50.816065    29.446595    25.312250
Si    28.138877    25.126908    53.979113
Si    17.236365    47.886200     0.344951
Si    45.044994    22.736297     1.418668
Si    12.738844    14.964754    38.256659
Si    20.403538    35.505671    29.820514
Si    15.345412     1.630167    54.731709
Si    22.444448    31.384343    49.067771
Si     0.553365    10.280560     4.492002
Si    37.048587    20.050349    49.665296
Si    17.026869    36.983434    16.381801
Si    40.496572    22.084013    13.331380
Si    12.108747    54.875474    23.005119
Si    32.894531     1.354150    31.856719
Si    39.440275    12.691149     8.423499
Si    24.448428    43.108633    40.140326
Si    45.217607    18.142289     9.495039
Si    13.460373    39.482633    18.084878
Si    31.510248    13.543793    44.744030
Si    39.245859    39.902791    46.503366
Si    39.451777    25.619256    31.114343
Si     8.131581    16.079298    30.556777
Si    27.292242    41.805250    32.584860
Si    40.442223    32.162542    47.366175
Si    25.144675    49.892105    17.977735
Si    22.352573    42.431138    48.918573
Si    44.370442     5.303855     2.269923
Si    23.470550     5.277710    52.232879
Si    14.388883    36.765970     3.033807
Si    55.490308    51.589822    41.564004
Si    48.939278    17.819941    52.488208
Si    22.345524     3.918513    47.830950
Si    15.618026    44.901320     9.659474
Si    31.081018    15.063493    34.343649
Si    19.820292     0.079602    39.262214
Si    12.839747    34.526066    15.365551
Si    46.914373    44.173406    11.239001
Si    15.821910    22.541192    48.384326
Si    43.872517    55.824155    32.437317
Si     7.773253    25.303522    30.464858
Si    43.077824     6.718397    50.077850
Si    29.853204    50.948629    47.071010
Si     1.718837    28.700300    41.742903
Si    26.723052    33.563986    42.909087
Si    48.534802    20.305332    28.331190
Si    48.333897    43.913981    36.251866
Si    37.937526     0.524005    22.226221
Si    36.211136    45.478039    43.167934
Si    25.420606     6.749626    40.937244
Si    41.498507    12.875398     1.197671
Si    39.542060    23.384638    37.773056
Si    29.326541    34.152062    44.433051
Si    43.248942    24.191644    51.870804
Si    23.618351    50.673823     5.061670
Si    17.027597    52.228667    54.753677
Si    40.844683    23.997302    40.448369
Si    24.552342    15.961676     9.684708
Si    37.856338    32.972742    18.494467
Si    43.169012    55.618760     9.747574
Si    24.287963    45.475139    14.879963
Si    23.263899    18.457090    29.137595
Si    44.148635    39.258788    39.852490
Si     1.704392    18.226025    43.491554
Si    56.195554     5.222406     8.263899
Si    29.522987    35.886595    32.478762
Si     1.794460    29.658636    21.981221
Si     8.631670     6.913027    13.888541
Si    45.640162    22.239791    50.988240
Si     2.581029    29.178375     8.114424
Si    33.610248    29.775378    35.955343
Si     3.298483    25.521975    25.306508
Si    50.284278    28.700160    17.683450
Si    37.276606    53.422970    10.299815
Si    42.579200    26.868715    34.365630
Si    54.792550    23.560544    34.421756
Si    53.494694     9.686986    47.996303
Si    46.813295    10.670004    44.365967
Si     5.025592    54.189822     7.441221
Si    34.088373    49.386606    39.817714
Si    56.089116    53.777436     7.108250
Si    27.529426    43.658765    52.697026
Si    28.153240    18.538302    34.292324
Si    13.540089    11.513703    20.318504
Si    39.175131    21.487736    22.060746
Si    46.109650    21.687650    47.973738
Si    36.086110    32.406390    26.487088
Si    47.647880     7.915385    14.118574
Si    20.303991    41.626604    18.698110
Si     5.574407    34.779129    11.570330
Si    21.447440    45.441011    10.408889
Si    45.293026    32.232202    39.968218
Si    33.511671    11.573719    43.761044
Si    48.016488    14.199077    55.317647
Si    12.819449     8.522997    44.818927
Si     7.355809    47.943698    38.964115
Si     2.763607    24.279447    41.331973
Si     6.231992    29.987631    40.756686
Si    15.600400    49.728654    33.517717
Si    17.237406    10.414853    49.531942
Si    41.682560     9.802225    21.233497
Si    40.481089    52.262491     6.646910
Si    23.829993     6.242475    49.402377
Si     1.628480    30.738656    31.207783
Si    32.549620    43.924162    17.073594
Si    43.960656    14.168067    32.274310
Si     5.264270    31.558801    43.340468
Si     3.161657     2.239407    36.024046
Si    19.497093    48.754304    21.966843
Si    42.316870    47.594795    33.992665
Si    29.284523    55.659960    41.616659
Si    37.835959    19.619089    46.174777
Si    42.173403    10.632547     3.404379
Si    35.201437    10.287640    31.985996
Si    35.453902    21.231187    32.850866
Si    24.638744    12.437264    43.610152
Si    44.224969    49.340363    10.002044
Si    12.016165    30.207155    29.845550
Si    50.931412    38.575118    20.146804
Si     5.131521    56.463678    47.044244
Si    49.158253     4.374571     5.141585
Si    38.948933    54.919727    17.025216
Si    18.752444    49.727382    11.104700
Si    19.880593    35.858461    24.586214
Si    25.793686     2.710061     7.592132
Si     4.505816    55.606673    25.566041
Si     4.948817    10.481676    32.035564
Si    50.093761    21.603114     8.108690
Si    10.271939     7.974473    46.228072
Si     2.455775    34.626600     1.144292
Si    42.548203    29.809651    46.688397
Si    47.207989    54.880725    34.649477
Si    12.864951    30.997077    22.412784
Si    39.329333    13.060006    15.781580
Si    23.949562    31.060097    54.013493
Si    31.174814    45.886465    30.444759
Si     6.836816    16.439536     4.149980
Si     5.407972    14.790031    29.527787
Si    54.353248    24.218334    41.991309
Si     3.767386    17.054362     7.193091
Si    30.289092     7.611592    49.361470
Si    12.502072    17.418815     9.556336
Si    43.904908    17.205766    33.199069
Si    40.702379    22.842796    31.892406
Si     5.694317    40.600248     4.655954
Si    32.982756    52.734154    13.566026
Si     3.698466     6.971790    15.408674
Si    43.410927    11.073169    37.252017
Si    31.467600    41.239287    44.385426
Si     4.672918     9.120375    42.191580
Si    13.142741    20.530639    27.580193
Si    55.517635    20.236115    40.929478
Si     7.061673     1.841032    38.265492
Si    30.912822    19.713460    34.533920
Si    45.763687    32.497067    43.152084
Si     1.872617     9.957164    37.692102
Si    25.181141    53.166801     1.630159
Si    43.514462     5.540210    52.882386
Si     6.905208    14.512841    18.741552
Si     3.747745    17.532441    36.264453
Si    40.220664    28.377599     6.170306
Si    33.089280    39.481957    42.523350
Si    46.456812    38.557475    54.435130
Si    13.733811    13.766502     6.798535
Si     6.816465    23.886992     3.886182
Si    23.231939    17.395007    40.558370
Si    23.590818     6.562725    23.191217
Si    17.324018    55.762761    20.983958
Si    23.594298    10.943637    47.106935
Si    29.568049     4.189382    12.831536
Si     3.735442    54.160575    51.602426
Si    40.575506    37.885695    48.707909
Si    46.935904    40.579973    39.841430
Si    45.776717    33.027590    17.854004
Si    19.484528    56.064422    54.195483
Si    53.613467    30.005233     2.885591
Si    21.746522    12.527394    23.994244
Si    17.840230     2.067536     8.707861
Si    36.667148     0.252093    16.977961
Si    36.180374    21.832797     8.451878
Si    16.612532     8.611595    53.413934
Si    21.675027    42.664083    34.949996
Si    34.270550    40.136569     5.476487
Si    52.542051    27.867948    40.369052
Si    18.563058    36.105409     6.501240
Si    14.322530    21.657435    43.621346
Si     0.768329     3.075788    45.908545
Si    45.199301    11.960313    27.740282
Si    49.320687    53.576293    39.881262
Si    25.496170     5.855361    33.692846
Si    41.653027    55.964782    17.650686
Si    28.021142    52.284318    40.143444
Si    30.818906    20.307624     0.255023
Si     9.646583    33.826637     1.960844
Si     6.713015    19.386623    33.500626
Si    44.442767    49.986633    40.472344
Si    48.399974    51.075041    28.047194
Si    53.374859    46.864860    12.165023
Si    54.308612    38.733543    27.025129
Si    53.654018     9.097529    29.786982
Si     9.048220    51.875959     9.375237
Si    20.374529     3.969281    31.967650
Si    51.493825    43.414248    19.051349
Si     0.975824    41.611937    47.123230
Si    56.489790    42.783933    42.773745
Si    44.139017    20.059995    39.622968
Si    11.228872     0.201590    43.217277
Si     4.665667    35.202645    30.575831
Si    15.220890    11.489797     8.415357
Si    38.052426    48.673940    56.017012
Si    49.380369    12.292911    24.417787
Si     9.675381    31.513295    34.463862
Si    47.993404    52.688689    45.394929
Si    26.635840    24.280695    41.687959
Si    23.869608    35.370272    46.986614
Si     0.621832    10.540532    42.348903
Si    19.291426    48.979363    47.797781
Si    19.773470    21.873937    21.566078
Si     2.876618    22.711290    43.915892
Si    10.135731    34.001727    13.772402
Si    53.352878    24.226973    29.751434
Si    17.994161    34.558171     1.155760
Si    28.975663    27.529914    52.543271
Si    44.749820    15.339470     3.416919
Si    52.664959    38.011988    14.106419
Si    18.298913    52.391232     0.769872
Si    17.023728     7.260861    24.939609
Si    39.547830    38.121701     0.059230
Si    33.567963     9.261397    11.277719
Si    53.614615    40.193517    55.587742
Si    46.305767    14.684517     6.065515
Si    28.834788    26.264969    49.699687
Si    44.117374    14.589801    29.116119
Si    40.772372    43.286909    24.384178
Si    45.759586    29.431932    38.428507
Si    11.855146    35.897010     1.577819
Si     9.349161    12.468272    37.384427
Si     9.384963    15.391008    12.561914
Si    22.647555     4.556223    28.220247
Si    36.839365    37.111542    49.702028
Si    42.104993    30.331090    31.212994
Si    14.690462    14.030667    56.047510
Si    30.203142    49.512254    51.496491
Si    11.006159    38.263341    51.843639
Si     3.377528    33.524515    21.930027
Si    12.504198    45.305022    10.348262
Si    10.995666    48.578308    15.753584
Si     2.199043    52.625949    12.051658
Si    32.872333    10.674136    25.485498
Si    18.092497     0.624266    26.023793
Si    49.623841    29.968672    47.229010
Si    37.796769    42.037740    17.666236
Si    10.748545    24.493826    30.568609
Si    26.394840     2.997821    54.396273
Si    12.394159    22.873914    32.802135
Si    32.164147    15.037681    28.834238
Si    28.452742    45.418738     1.164639
Si    52.270967    51.079242    56.511056
Si    13.477655    15.528152    30.413732
Si    12.260079    21.038621    22.657264
Si    23.292450    27.877630    43.924473
Si    16.519751    22.061842    38.824929
Si     0.365027    27.747095     0.915355
Si    28.877754    11.416043    38.293177
Si    35.761571    26.455161    53.425395
Si    25.144719    38.186188    29.974128
Si    20.085851    23.887195    38.101691
Si    48.166260    45.585864     8.925561
Si    43.523397    45.789077    42.528853
Si    40.595039    34.681899    49.152049
Si     1.200748     0.882217    52.425021
Si    36.491884    42.116862    39.542580
Si    41.058497     7.395909    43.478414
Si    53.638946    14.062335     3.607933
Si     4.147005    26.844541    55.586842
Si    26.813537    32.795616    36.293593
Si    41.834957    36.087699     0.369656
Si     0.131712     8.418457    35.514075
Si    35.560971    15.459087    54.146980
Si    19.498667    19.361414    55.705938
Si    46.656667    50.787542    16.703575
Si    10.334038    52.540808     6.569092
Si    54.702976     4.671594    28.746580
Si    55.493805     6.563770     3.699623
Si    33.752261    23.159040    14.237875
Si    25.855872    50.181315    39.858325
Si    47.332141    40.509880    17.295499
Si    34.978766    26.048591    35.734045
Si     0.607972    44.741140    40.396347
Si     7.720318    23.488486    34.975487
Si    45.015911    29.151894     6.619169
Si    20.921672    51.689645    25.976236
Si    43.184394    16.322194    35.831775
Si    18.382776    26.668009    48.248583
Si     1.564106    26.959562    15.695267
Si    21.048680    53.656092    49.079160
Si    19.158931    30.905548    52.526501
Si    42.403542    14.341103     4.955513
Si    18.861040    38.051039    12.548365
Si     3.745141    28.561167    17.013503
Si    54.558349    23.159125     6.219150
Si    37.318855    38.025270    36.954302
Si    52.820966    55.379637    52.878907
Si    55.018452    37.658234     0.232341
Si     0.350767    24.742476     7.408088
Si    50.590044    49.584372    29.913916
Si    52.467841    53.572859    50.235213
Si    42.871270    34.452648    10.543824
Si    40.408410    30.747912    41.090383
Si    52.576537     5.949036    24.679474
Si     3.066861    50.937603     1.197772
Si    50.334902    43.553764    48.678060
Si    54.626769    36.594451    23.270244
Si    25.807616    15.852851     0.362803
Si     9.983886    12.297366    41.899721
Si    20.281132     0.771411     2.557300
Si    37.641592    53.836692    24.336680
Si    16.489503    46.159009    27.915628
Si    38.673859    39.927944    38.905908
Si    31.627016    37.011543    43.703090
Si    12.131954    35.836843    21.771623
Si    40.024225    43.676569    18.981839
Si    24.357388    27.240315    52.594367
Si    14.179469    13.175428    28.831155
Si    37.036126    55.279810    52.723085
Si     0.106739     0.179537    13.264547
Si     3.830794    42.337882    37.743787
Si    48.269168    55.656825     7.346746
Si    51.081335    45.464011     1.305326
Si     1.990850    55.058230    53.973966
Si    34.653886    14.183093     4.023414
Si    48.106042    46.513433     0.771812
Si     0.062892    18.412455     4.629085
Si    32.507701    15.194842    54.149330
Si    23.144809    31.374933    42.576513
Si    53.362303    17.971963    24.486429
Si    17.183494    12.836518    28.842802
Si    38.316360    25.110524    52.596725
Si    22.220390    19.159354    50.193972
Si    45.947278    25.944140    47.753781
Si    23.632249    44.750512    55.375957
Si     5.246662    16.567063    48.747707
Si    35.089589    54.084285    47.055004
Si     7.775143    47.299541    42.002798
Si    29.834427    55.168069    47.125441
Si     7.252975    50.229412    42.257106
Si    30.416005    10.676494    29.668240
Si    33.912296    13.402475    24.567920
Si    18.828416    21.332153    53.516502
Si    55.860829    13.796264    55.363451
Si     4.713535    11.908973    29.573596
Si    31.036337    31.054586    56.229044
Si    19.466026    20.190708    47.224536
Si    34.141520    23.913372     9.356597
Si    46.751263    19.942451    53.051485
Si    39.266588    55.655570    10.227377
Si     1.021058    49.700178    53.799310
Si     5.142843    44.391591     9.850797
Si    27.328343    21.503499    28.239321
Si    25.922683     0.665339    38.495287
Si    47.593683     6.863173    37.858652
Si     2.356440    55.986484    48.084397
Si     7.523572     4.368087    53.402358
Si     9.241508    29.401301     2.578698
Si    18.287829    20.333130    41.883329
Si    20.484143    39.635120    10.513716
Si    40.178494    45.963730    11.759061
Si    20.836888    34.276961    39.466869
Si     9.472330    53.583238    39.109398
Si    11.628762    35.670836    44.516812
Si    48.697813     6.420413    24.553310
Si    40.022787    33.311623     7.285440
Si    17.869629    13.145073     8.816372
Si    53.474923    47.801580    23.857717
Si    35.013931     4.943009    20.003438
Si    38.954097    40.904322    25.006135
Si    10.671347    45.758386    18.682299
Si     1.922958     8.911109    46.973585
Si    46.774646    43.045214    15.666279
Si    23.670120    14.913612    44.952990
Si    21.567829    20.659266    36.345523
Si    14.285292    32.982897    17.770138
Si    41.677117    38.440485    22.572644
Si    28.721266    12.299638    27.454470
Si    52.262288    25.171182    56.272282
Si    55.187223    49.286291    31.466796
Si    37.114941    20.307083    41.026746
Si    17.792307    55.840090    13.650337
Si    38.449828    54.235312    55.277600
Si    51.210656     5.242650    32.306507
Si    20.584680    11.795585    19.929699
Si     8.253467    41.132440    19.408647
Si    50.332521    48.753378    39.408313
Si    50.345655    22.756716    24.227987
Si    45.810125    19.712079     4.566158
Si    46.558335     2.210733     8.923405
Si    41.056395     1.325503    35.958701
Si    36.248849    35.943564    54.268751
Si    36.241965    44.647367    27.937838
Si     5.927643     8.287077    35.705827
Si    36.259833    15.741128    43.343663
Si    44.804108    51.621213    48.023326
Si    16.671032    22.943710    45.349431
Si    23.956929    28.130713    46.781822
Si    37.277701    15.607702     0.062063
Si    38.359552    51.293928    28.630031
Si     7.723466    27.387118    14.381745
Si     1.705277    35.365634    37.496059
Si     6.091997    39.688439    17.580336
Si    35.169609     0.238903    14.560696
Si    50.842853    10.444880    29.048620
Si    24.521226    30.696232    26.434750
Si    23.389400    49.828957    43.797410
Si    29.576290    28.821355     8.173286
Si    44.506595    45.177070    12.941665
Si    32.193639    55.305461    42.338113
Si    20.579153    10.539752    35.941780
Si    47.973284    55.782327    41.665889
Si    13.782681    43.354281    29.818376
Si    36.949504     2.558760    30.802467
Si    27.191430    54.260438    49.974175
Si    47.955551    22.278898     0.645918
Si    55.643786    44.776963    16.975147
Si    44.738054    20.833578    31.348352
Si     7.682664    33.159194     9.831904
Si    25.267976     6.869770     7.419653
Si     3.125039    47.867003     0.068106
Si    53.823586    13.205654    16.400883
Si     3.321635    38.765766     9.031424
Si    19.170799    18.311745    50.477315
Si     6.820962    13.667765    44.904598
Si    46.542292    27.263325     4.751794
Si     6.588187    10.949922    37.011497
Si     5.107294    11.544472    51.320384
Si    27.431083    23.200546    10.327971
Si    48.371401    54.889868    13.927609
Si    36.831405    21.501874     5.448973
Si    19.469242    43.905902     4.074775
Si    38.399965    13.986490    33.731152
Si    33.444501    24.326650    41.336829
Si     0.422260     2.607178    54.628626
Si    21.744118    22.696659     0.899412
Si    37.465564    13.344360    20.078807
Si    45.409234    22.705041     4.614061
Si    43.195209    54.106225    53.380180
Si    52.683771    22.995484    44.279138
Si    47.580671    50.235386    32.740499
Si    32.390870    39.209834    39.535476
Si     1.316415    44.944083     6.023767
Si    43.522767    40.015245     5.958653
Si    27.220266    42.799774     1.554401
Si    23.010530    47.191536    34.391177
Si    50.833045    15.575318    48.399909
Si    27.287876     8.040022    14.511949
Si    12.069593     9.306693    53.309236
Si    10.367362    27.002590    35.178550
Si    13.526839    31.812556    52.775484
Si    21.425424    44.868033    15.491689
Si    20.967886    12.726767     9.101744
Si    25.005546    32.607728    47.615158
Si    12.672851     3.460699    54.530582
Si    46.634068    38.240030    23.010731
Si    35.758625    47.415459    37.895448
Si     6.367664    33.037670     2.240904
Si    34.271120    39.813428    48.208146
Si     4.882672    23.237247    33.483885
Si    55.687786     2.693358    31.212594
Si    11.222123     7.177334    31.238147
Si    47.816947    49.588217     0.329013
Si     1.726012    12.965747     0.330124
Si    27.424948    51.199750    16.581484
Si    45.629617    40.477151    32.001939
Si    24.983285     9.042263    22.475322
Si    43.016704    18.418750    49.873868
Si    51.733392    46.751813    37.903725
Si    12.872523    20.872689    19.617376
Si    23.558112    23.733571    30.506045
Si    14.308502    36.868785    26.205199
Si    41.256643     5.442996     2.000874
Si    50.339424     4.437833    15.037831
Si    38.845918    22.506044    54.051983
Si    49.289131    13.828648     6.199435
Si    26.704360    19.645161    25.816646
Si    40.433668    24.368725    11.224257
Si     5.065597    53.888328    36.744710
Si     0.965677    26.372887    49.871849
Si    11.017352    46.874123    50.018939
Si    50.262138     6.142040    50.600795
Si    41.071513    16.006490    50.214360
Si    14.853318     9.356095     6.121538
Si     6.899222    37.072881     1.532045
Si    56.140119     0.281680    26.284368
Si    38.838237    37.669716    34.278325
Si    19.192747    15.434795     2.279592
Si    35.226826    24.568203    24.612530
Si    41.478555    47.145033    28.816901
Si    29.440067    32.870745    12.849357
Si    55.121086    31.003493    30.615701
Si    35.834075     1.423053    49.069305
Si    49.011400    50.726949    37.517278
Si    37.431315    30.788700    53.235925
Si     9.260731     9.033543    29.581012
Si    54.423996    31.866379    41.009431
Si     9.598080    28.034243    26.852329
Si    54.393313    41.908078     6.429228
Si    48.321210    33.872080    11.481648
Si    22.291366    25.398251     5.239041
Si    18.745973    45.362919    56.122355
Si     3.647529     4.503139    17.216860
Si    31.259347     2.171872    55.702361
Si    47.490673    49.835290    13.822378
Si     3.737155    52.840388    32.763698
Si    47.265962    10.020789    34.637004
Si    14.861626    45.106697    43.491516
Si    28.182232    33.317788    17.366248
Si    35.495383    50.227738    22.685838
Si    39.157641    48.786534    40.598614
Si    52.538479    42.288861     8.899137
Si    50.688006     2.809255    22.449266
Si     5.592338    21.306442    22.116348
Si    21.021346     6.415408     1.832060
Si    21.510601     7.879070    49.170470
Si    48.467591    23.604051    31.569109
Si    36.888926    36.470550    29.906725
Si    35.225100    42.207065    13.087587
Si    43.634432    25.447261     1.412423
Si    49.219291    22.446344    12.869878
Si    33.347598    22.199604    56.415778
Si     0.376046    17.210594     1.835134
Si    31.952364    50.223550    14.986124
Si    51.966221    32.687530    21.114459
Si    44.794201    54.972484     4.536034
Si    18.671925    48.210252    28.734044
Si    34.866337    19.858590    51.611648
Si     5.349493    41.960461    26.961392
Si    32.635384    10.780189     3.152868
Si    29.460722    15.426739    10.097630
Si    53.814325     2.631793    38.187460
Si    42.726895    55.717113    48.843262
Si    30.502608    22.703746    34.779939
Si    15.203293    36.951550    47.145894
Si    45.215345    44.514361    31.276433
Si    20.926886    56.306871    24.857145
Si    22.133569    29.488440    25.305094
Si    26.717381    31.729562     3.865867
Si    36.318895    31.605315     3.894505
Si    11.133021    37.836403    37.435000
Si    10.151777    37.867897    18.852126
Si    20.475296    13.202760     4.130998
Si    36.515386    40.346516    15.518701
Si    44.306380    48.602281    55.564550
Si    17.194998    38.911761    48.460695
Si    11.147635    28.622066    42.929791
Si    39.267981    29.096185    15.793583
Si    40.047331    22.677949     2.168943
Si    45.798486    27.341133     1.938437
Si    47.069170    47.968554    34.792734
Si    15.917992    36.718762    35.944170
Si    46.878274    27.246169    23.572811
Si    21.255957    37.868240    31.696705
Si    40.018736    51.898131    46.939454
Si    43.267914     6.131178    35.234990
Si    26.242977    42.365729    42.379184
Si    30.308343    41.810940    23.086607
Si    20.612389    44.199308    26.095748
Si     0.009556    51.483500    24.512690
Si    29.683242    33.605502     9.785535
Si    13.287754    27.939599     2.739002
Si    27.583339    28.457343    10.210619
Si    39.228102    26.053036    55.476362
Si    35.596266    37.901861    19.374236
Si     9.656164    50.070878    18.104138
Si     3.241979    40.361324    28.711576
Si    20.934575    16.759612    27.724149
Si    18.774310    17.323215    53.411900
Si    37.321428    44.954125    38.263337
Si    45.572078    32.506442     0.420212
Si    18.063715    32.606147    43.949289
Si    50.071074    21.689829    43.141510
Si    51.290159    14.263912    55.476669
Si    17.446795    11.609436     1.154402
Si    21.701420    25.233246    42.273275
Si    52.111185    23.710494    39.913980
Si    53.859392    30.586130    36.275466
Si    30.138572    18.397149    31.982090
Si    30.852545    27.178015     5.866879
Si     6.844297    15.600446    33.277041
Si    55.706870     2.224339     9.384924
Si     3.964343    15.001678    32.303702
Si    29.899236    48.775250    31.031079
Si     5.752513    25.707244     6.105496
Si    33.795677    21.476944    27.756410
Si    39.850768    30.370056    13.164325
Si    22.153945    55.955548    15.241337
Si    18.689852     5.985660    18.011641
Si    40.028670    49.894443    52.277009
Si    56.171335    40.659394    12.966242
Si    37.411735    36.067097    46.724919
Si    18.612630    13.166966    46.078674
Si    21.782397    38.117017    12.737595
Si    40.899614    46.550670    14.673008
Si    52.427056     4.035797    19.058630
Si    40.584822     8.554430     1.572773
Si     6.310311    35.189119    37.169516
Si    27.586024    34.415106    49.966571
Si    33.285555    26.822730    17.896107
Si    39.469116    35.482525     4.038667
Si    55.840438    50.643784    21.721936
Si    42.737897    10.661701    26.388993
Si    30.336484     8.778763     7.924219
Si     3.292707    28.170892    30.668884
Si     6.992700    43.558450    31.494931
Si    51.793602    37.439338    28.132766
Si    28.621561     7.985846     3.514084
Si    25.502152    56.134396     3.944438
Si    26.512072    47.648713    41.531132
Si    18.631478    33.687910    22.933285
Si     8.421603    19.393845    41.117167
Si    15.000901    36.395695    54.791985
Si    45.243718     0.669389    34.745821
Si    28.668272     6.257543    46.962848
Si     0.502955    12.586634    38.330578
Si    19.124709     3.125430    39.167218
Si    51.561896    50.049991    46.285996
Si    47.613183     2.334680    48.813941
Si     3.301881    39.793192     0.703035
Si    48.562226    49.420221    23.111927
Si    14.985516    46.864338    32.178331
Si    35.576913    11.755122    29.174282
Si    35.781442     0.704651     8.901778
Si    54.878088    12.069675    46.745650
Si    12.455162     5.833935    23.573363
Si    15.699829    10.627233    55.445363
Si    32.459586    42.618588     4.704508
Si    22.240829    30.905917    35.837697
Si    40.039231    26.437760    47.848858
Si    14.991814    47.651700     2.350692
Si    46.227511    44.952805    34.161569
Si    11.828710    54.598777     3.151914
Si    29.665014    15.867401    19.784656
Si     4.883069    35.065794    19.625426
Si    32.162341    19.660706    17.575181
Si    19.647216    52.511235    30.382842
Si    16.012761    51.682061    41.269906
Si    20.715066    47.169450     8.006347
Si    35.227931    11.997872     6.083041
Si    24.073368    22.481299     2.876480
Si    25.171131    43.724579    12.585887
Si    50.737375     5.627109     0.619018
Si    35.132705     9.233197    48.699139
Si    41.046117     0.645794    22.871639
Si    20.483890    31.412029    46.646399
Si    22.873628    46.889583    29.671269
Si    37.462503    11.207487    33.797169
Si    41.452962     1.611928    50.188067
Si    32.141566     2.320067    52.892667
Si    15.902123    20.614123     3.311885
Si    28.717238    11.238991    41.464556
Si    39.309839    46.263251     7.416333
Si     6.720156    31.081829    29.960940
Si     8.705151     1.546657    54.014765
Si    36.945870    24.658952     5.616008
Si    36.217746    18.575420    53.891387
Si    49.906129    25.776235    49.371328
Si     0.262795     6.423095    10.827987
Si    53.683880    43.361669    43.730848
Si    46.299870    11.797351    36.738272
Si    51.791393     4.558646     9.066786
Si    24.147598     6.003423    11.705611
Si    34.758104    27.043263     1.237747
Si    16.412993    12.553769    23.883405
Si     2.797762    50.576559    24.176544
Si    24.253114    49.275910    23.226787
Si    40.695548    43.296269    10.258226
Si    54.943803    20.963239    37.889172
Si    40.677280    39.805318    27.338713
Si    25.602436     4.015507     3.386371
Si    53.138218    49.674204    33.803914
Si    49.738888    54.440417    30.187538
Si    31.121442    23.419996     9.130922
Si    28.268387    44.070557     8.322350
Si    32.860124    16.427065    40.685717
Si    43.057722    52.061786    34.763983
Si    48.632475    34.848777    29.549811
Si    25.777804    26.152092    24.579503
Si    16.593232    27.836213    30.576716
Si    42.491242    18.806729    30.873408
Si     0.692894     5.585459    36.334196
Si    15.581109    12.603059    46.148567
Si    13.193952     6.880348     6.745632
Si    34.511567    22.152142    45.221527
Si    48.609050    47.151423    14.816565
Si    21.569336    32.554397     4.416454
Si    47.103237    44.179088    55.698314
Si    23.552571    42.943430    30.613978
Si    42.397228    46.865195     0.909355
Si    37.885558    35.477765    11.544153
Si    41.233787    41.152743    15.257398
Si    56.338042    42.817818    51.928396
Si    51.320655    55.150748     5.980901
Si     0.654834    55.569289     2.569358
Si    33.957273    35.060349    56.177352
Si    25.004319    12.100083     2.450317
Si     3.530404    28.067399    19.997574
Si     4.330220    22.324502    10.239771
Si     1.889613    24.253961    17.299129
Si    13.940231    49.475337    53.831025
Si    45.154477    10.694606     4.454024
Si     8.609419     7.522666     0.773117
Si    43.398317    19.006066    28.051119
Si     9.563137    29.315960     7.702016
Si    25.875033    54.125956    38.779817
Si    17.080850     5.194773     3.335128
Si    16.720198    56.037356    38.708445
Si    15.871581     9.770930    20.274620
Si    15.070566    11.775556    34.480414
Si    45.491085    51.375226    12.010906
Si    28.772671    24.528477     1.779232
Si    51.049085    48.114606    50.837932
Si    29.914699    10.857290    10.237292
Si    38.659234    19.278249    27.878585
Si    39.535551    20.296006     4.316277
Si    28.435283    49.893356    56.317175
Si     3.642045    13.038006     7.175721
Si     4.677294    53.553555    46.082517
Si    46.503873    51.337144    24.036325
Si    29.797627     5.163745    30.371822
Si     0.261647    24.577099    24.937237
Si    49.255083    42.127620    56.444646
Si    37.245012    49.964932    53.399487
Si     1.810337     0.842483     9.307193
Si    25.185986    35.047458    30.114651
Si     8.172203    26.882070    52.115797
Si     9.133828     9.878011    34.057532
Si    52.574680    17.079480    56.399153
Si    14.627056    17.636962    48.926830
Si    38.155782    50.851404     4.965274
Si    47.814017    42.622473    22.613422
Si    48.375750    43.076844    25.696849
Si    24.145720    30.531882    31.952627
Si    32.745761    43.786865     9.543961
Si    54.825163    49.915234    36.208397
Si    21.985864     1.154592    54.463484
Si     4.473335    48.046057    32.443753
Si    35.137857    28.344853    33.719765
Si    25.567365    52.116528    51.557054
Si    52.803969    46.057608    42.290539
Si    23.680681    24.704114    19.549169
Si    47.363209    53.845131    11.237310
Si    13.446909    11.646677     4.420606
Si     3.595946    41.431608    45.245884
Si    46.508733    13.235129    11.490703
Si    48.580178     5.781603    44.717238
Si    41.240748    48.791279    19.473322
Si    21.422301    49.132718    54.813669
Si    21.106624    44.953453     1.591571
Si    14.263372    29.576450    31.860691
Si    50.901186     9.821657    38.911716
Si    34.657631    38.564220     8.050001
Si     2.155585    49.826585    37.666241
Si    41.250815    46.355102    17.692078
Si    10.538417     1.975223    15.151579
Si     9.862963    10.328095    17.785161
Si     4.299812    32.060428    34.235711
Si    54.733994    33.509669    22.468430
Si    29.906762    56.577337     7.506837
Si    54.830641    13.741530    40.254292
Si    29.698220     2.325808    51.271819
Si    17.060532    52.341433     3.448940
Si    20.146916     0.458078    21.897038
Si    34.745739    15.766121    35.965962
Si    13.327042    55.680655    45.220675
Si    43.159822    20.421780     8.661602
Si     9.499969    53.825318    45.612232
Si    32.861181    27.032779    45.840552
Si    19.357191    14.611740    13.778560
Si     0.192898    20.910378    43.557458
Si    43.542365    52.836835    40.051656
Si     8.585466    50.472339     5.022566
Si    32.758899    13.361839    36.268810
Si    49.397213    15.592143    42.912491
Si    17.765037     6.114335    52.334205
Si    46.093431    36.854175    14.379180
Si    49.255284    21.062031    54.753265
Si     4.818452    17.034964    11.180431
Si    13.678191    30.273911     9.926334
Si    33.819805    18.174201    22.329357
Si    37.750166    35.192398     8.391077
Si    19.831399    51.423371    35.588264
Si    48.995610    14.974991    50.961701
Si    38.297945    54.373279    21.314282
Si    40.853849    34.296702    26.036102
Si    50.448793    15.874121    38.199091
Si    30.909849     6.677072    19.156158
Si    30.720974     7.874195    53.950640
Si    12.022790     3.492053     0.983878
Si    16.423803    35.472685    21.808033
Si    31.683305    45.740902    35.486025
Si    45.954802     0.741552    21.091512
Si    42.361589    44.739501     3.244403
Si     7.312768    24.393007    16.116963
Si    33.604092    43.355378    35.543336
Si    56.071081    37.150047    53.909244
Si    20.379775    27.186956    17.105950
Si    51.090147     0.093716    31.924884
Si    33.614819    28.522338    52.634272
Si    55.283928    26.057257    31.020652
Si     2.137225    49.853144    21.231637
Si     8.267427    17.680713    55.100996
Si    25.503970    49.200981     0.750991
Si    10.480043     4.937232    17.881576
Si    53.780140    48.319677    47.578341
Si    38.597891    50.486811     1.881701
Si    26.954323    34.658336    32.436414
Si    52.374611    14.747288    30.221630
Si    19.262311     3.170264    13.645916
Si    19.717332     8.288905    29.237337
Si    38.926399     8.364098    30.838259
Si     5.711708     5.029628    26.308319
Si    25.286713     0.387684    27.286073
Si    29.957536    23.497666    16.533650
Si    20.500912    15.162551    24.994374
Si    27.223961    53.924827    20.129020
Si    43.672898    30.778283    34.040202
Si     9.166140    55.560027    17.887466
Si    47.197312     1.956658    51.761773
Si    10.717733    22.336768     6.027403
Si    27.198595    17.446082    21.111505
Si    38.170990     7.093949    10.845404
Si    11.789327    50.893598    20.116567
Si    18.513335     4.494249    34.283023
Si    15.927396    21.229133    53.141550
Si    56.546223    39.364493    40.520629
Si    27.658761    38.855448    52.589619
Si    35.183769    25.504222    21.781197
Si     5.995206    37.610043    15.241503
Si    44.790294    44.841653    25.558368
Si    38.548777    39.028155    29.471584
Si     8.135572    51.885867    32.434739
Si    11.726886    47.691761     8.423092
Si    55.597913    54.139611    46.001643
Si    53.344624    25.141642    15.421952
Si    52.884621    13.818359    27.476391
Si    25.778745    33.090915    15.158373
Si     9.098431     2.304172    49.168697
Si    18.234497    17.248463    39.260554
Si    51.153752    37.382657    33.086352
Si    20.187530    47.592019    31.339359
Si     8.060316     3.526437    25.147110
Si     3.155460    13.919377    53.334263
Si     1.962612    13.940665    22.763733
Si    44.100869    46.167352    22.953942
Si    52.497214    11.495895    56.083659
Si    30.881223    30.999785    20.477567
Si    55.056618    44.962097     7.192599
Si    53.859628    35.134069    35.332398
Si    44.687429    16.200843    45.779242
Si    40.582083    50.486918    42.717334
Si    52.747615    52.722667    45.172472
Si    42.235816    34.795778    51.857859
Si    48.231809     8.731028    40.210838
Si    52.900399    18.810409    41.277297
Si    31.402314    28.794287     3.197539
Si    44.172961    12.552465     6.732987
Si    25.790766    42.177700    37.372409
Si    48.809633    44.141021    13.556429
Si    45.279504     6.849024    15.610369
Si    18.736530    51.132631    27.840110
Si     8.552441    43.293996    24.209811
Si     7.157302    44.540277    16.176077
Si    55.919327    28.286218    54.722585
Si    27.490235    16.247714     5.349266
Si    27.592518    13.886989    18.354148
Si    51.491194     3.295869    25.543315
Si    40.877199     7.952472    14.451883
Si    31.967313    29.735350    17.375406
Si    51.088872    33.742999    14.570748
Si     6.637831    21.483066    19.067518
Si    13.133209    18.721135    44.325594
Si    44.660574     3.445799    44.237290
Si    10.114997    45.747575    15.775583
Si    43.146936     2.222801    21.247555
Si    13.118367    26.336867    19.921202
Si    23.442388    26.797212    26.666646
Si    39.147479    31.206230    30.577456
Si    16.966287     7.143961     0.863183
Si    50.201783    54.652491    25.354506
Si    13.526664    37.914528     0.484574
Si    26.594308    28.971272    19.301640
Si    33.946411    33.552799    11.262603
Si    48.784398    55.494983    44.668841
Si    56.526256    50.566868    12.013951
Si    44.386586    51.388846     0.618001
Si    27.593325    46.696865    52.829218
Si    22.866646    42.559544     1.812300
Si    28.231628    30.563523    34.607493
Si    38.042774    34.633842    50.896525
Si    41.148908    18.754510    43.007653
Si     2.870886    34.360055    12.991111
Si    56.572514    37.717410    30.744159
Si    47.635527    28.464236     8.086066
Si    23.348527     5.723375    17.389883
Si     4.641247    30.471617     1.412094
Si    12.296042     2.862857    10.299794
Si    21.200317    26.666710    37.655212
Si    19.612063     8.664855     0.283705
Si    29.292246     8.634039    34.277575
Si    18.376414    19.041310    21.672897
Si    41.666518    41.803214     4.067242
Si     8.962931    10.487637     1.527543
Si    25.674749    24.777515     1.715534
Si    55.575923     9.279059    45.923187
Si     6.044541    37.148880     9.551143
Si     5.009506    13.763041    39.678079
Si    22.449278    44.649826    32.851743
Si    31.618195    39.262761     0.130906
Si    43.425768    22.977538    39.055826
Si     6.512599    43.730857    19.196131
Si     2.988642    14.230215    15.796470
Si     4.935709     0.109007    50.811014
Si    27.453504    52.081846     3.514997
Si    48.715756    42.366313     5.680170
Si    14.563174    16.619962     5.798574
Si    37.988476    29.775382    39.364621
Si    35.906478    49.598614    49.094606
Si    37.544114    31.298072    47.392291
Si    52.768841    27.737046    35.736184
Si    31.007042    28.534654    39.220782
Si     6.433956    27.523407    20.715680
Si     3.132543    46.029191    54.303840
Si    50.291215    46.650189    30.722094
Si    12.090930    23.676517    18.289113
Si    11.160126    15.256397     7.655539
Si    30.379025    46.536556    23.933823
Si    44.543954    34.948329    12.980066
Si    33.478633    21.390134    38.325498
Si    34.763193    35.604761     7.380835
Si    38.460161    40.006159    11.996001
Si    29.439121    35.732162    29.391835
Si    38.343107     1.894878    26.956196
Si    25.077646    48.491757     3.678233
Si    38.624597    38.900171    22.580995
Si     7.449901    39.819339     0.146769
Si    50.871746    27.859288    14.710460
Si    43.106442     1.504009    11.738933
Si    43.644742    34.933221    32.540304
Si    54.112052    52.466982    16.366639
Si    12.492560    25.225425    22.692834
Si    22.992625    18.361016    34.765106
Si    20.624572    23.824584    19.193321
Si     7.142346    27.339845    10.471340
Si    26.424391    29.255030    24.410983
Si    38.291102    22.157603    33.916314
Si    46.718466    30.896412    47.649217
Si     7.147867     4.530378    50.352960
Si    42.174830    21.301028    26.481069
Si    47.064326    18.806745    11.919392
Si     5.896067     3.518675     8.979823
Si    19.222271    51.066703     8.226746
Si    15.499239     6.245198    40.122261
Si    41.221201    40.200737    10.807348
Si    48.785725    42.897972    46.070670
Si    18.172275    26.537593     5.494301
Si    15.430337    23.832388    32.057971
Si    15.428703     2.892049    41.959800
Si    49.815519    51.280705     1.786226
Si    30.441818    43.016375    53.434206
Si    35.888578    26.865754    46.272540
Si    33.810920    37.600961    50.283613
Si    51.799771     5.994292     4.834736
Si    10.673741    40.503070    17.614395
Si     8.099720    47.440136    18.813124
Si    10.659556    13.355295    24.238164
Si    49.084114    36.090552     2.922783
Si     7.065739    16.277114    16.304899
Si    24.589958    28.420452    55.541668
Si    26.088019    19.311936    18.722287
Si    41.180637     7.014224    54.002903
Si     8.365207    11.904462    10.299755
Si    50.097864    25.930612    40.974970
Si    35.626176    43.218007    52.296640
Si    15.006851    29.297438    36.612511
Si    33.525640    16.784275     3.763430
Si    53.108126    18.283911    17.754523
Si    55.752329    31.993015    10.052043
Si    55.043775    19.353745    31.987900
Si    26.438563    51.483010    33.856592
Si    28.365893    53.066002    11.086218
Si    50.543249    31.956968    44.797639
Si    11.266902     6.248848     2.072170
Si     6.819999    42.077244    10.822838
Si    18.836945    27.805048    52.652344
Si     5.734264    53.245211    27.336249
Si    28.575639    49.970215    11.736393
Si    16.728834    51.071359    36.204713
Si    34.900347    10.355670    19.961579
Si    17.086202    42.242306    10.579166
Si     5.177326    21.714323    30.796311
Si    32.660475     7.889186    26.612157
Si     0.185620    30.940889    51.365598
Si     3.239585    52.429295    38.888975
Si     7.455110    20.987055    38.532611
Si     0.634182     3.861287    16.949223
Si     9.120189    36.517184    39.386467
Si    10.157454    42.795568    47.760869
Si     9.091891    15.716387    23.013774
Si    18.098136     8.403663    22.264837
Si    52.146083    18.366207    10.405389
Si     8.699706    14.469335    51.751222
Si    31.202390    38.292350    12.600504
Si    39.829119    10.743111    47.913399
Si    32.689238    50.920364    27.049470
Si    24.126804    52.989063    43.113964
Si    33.290095     2.897432    18.238507
Si    54.200478    45.759115    34.039607
Si    11.888094    10.657996    38.209878
Si    29.943079    21.553554    47.220950
Si    53.896839    44.766181     9.970923
Si     3.500478    40.973376     6.791767
Si     5.920444    51.837842    34.423552
Si     1.662111    40.230063    49.893906
Si    31.127562    46.674712    38.352696
Si    51.188204    12.041481    17.876791
Si    36.481010    13.355313    15.355432
Si    44.970403    36.585217    47.248659
Si    47.036511     0.590429    46.501725
Si    56.316484     7.585179    19.303324
Si    47.022107     6.847646    18.241109
Si    51.501424    47.282262    33.461072
Si     8.128541    19.231711     7.098472
Si     2.266046    24.848791    37.188152
Si    11.354814    16.370094    40.461730
Si    47.000819    40.152381     0.456244
Si    40.680886    54.784125    12.831775
Si    38.579493    17.460846     3.636012
Si    53.124124    35.282396    31.714774
Si    53.445439    54.614775    35.877569
Si    19.276885    36.346357    43.883798
Si    16.978515    45.538511    35.682850
Si     1.159971    32.920416    18.145883
Si    46.195189     7.534183    44.221264
Si    49.717858    20.164220    10.773626
Si    16.088167    23.155206     1.608274
Si    52.236055     5.846920    48.196728
Si     6.346422    54.207224    32.906412
Si    19.803338    13.348253    56.583363
Si    53.666586     4.991854     6.971631
Si    14.702479    50.889143     4.879146
Si    29.372316    22.666270     4.230709
Si    28.310307     7.572662    51.870990
Si    54.424101    53.312596     0.428739
Si    16.545890    14.782468    21.914653
Si     1.978357    35.383613    26.569918
Si    18.857094    35.641751    10.718607
Si    50.197780     9.156898    34.210003
Si    44.840215     8.874729     9.416780
Si    41.903807    25.333465    24.184170
Si    10.269724    14.201229    34.782543
Si     2.485347    53.770703     5.897601
Si     8.034821    21.211428    48.321631
Si     7.454171    40.649349    25.222136
Si     8.145235    55.171080    27.949848
Si    52.873644    33.181851     6.312766
Si    33.215254     1.845682    41.994053
Si    19.354047    49.523614    52.677833
Si    54.583199    55.391361    17.297090
Si    33.206806    29.631740    27.891920
Si    49.842850    14.692713    17.379982
Si    42.972257    24.428053     5.913320
Si    50.922876     1.394426    11.182830
Si    10.609408    26.584887     3.200555
Si    12.783916    11.052626    17.182712
Si    53.615131    39.084863    21.813378
Si    21.941890    16.060774    17.228385
Si    14.795568     2.901380     8.616551
Si    48.729615     3.231677     0.499454
Si    54.692615    20.106936    22.853609
Si    56.504615    26.726710    47.071689
Si    33.232755     8.267784    52.480547
Si    16.459616    48.886865    22.632580
Si    55.952407    36.281963    28.005771
Si     6.726934    23.602933    28.168005
Si     0.909656    52.380891    33.946563
Si    19.213397    10.548363    31.306783
Si     9.247533    21.705309    45.599015
Si    42.094672    36.801479     3.252948
Si    20.970164    33.383677    20.881304
Si    29.011142    49.179279    14.698724
Si    17.779587    30.426898    29.263790
Si    17.621408    32.016231    47.965492
Si    14.877643     3.296377    45.943531
Si     9.763076    51.217251    26.835521
Si     6.977201     8.339658    32.810158
Si    50.699269    53.609075    19.656497
Si    35.451401    10.240385    45.692702
Si    38.182962     6.949270    23.575243
Si    47.341459    36.922514     5.343294
Si     9.735231    31.051905    14.030167
Si    29.351195    49.944490     2.613843
Si    10.818438    31.721964     3.881172
Si     6.820603     8.739932     5.730000
Si    32.004878    43.874599    24.585144
Si    36.069460    30.259297    19.040567
Si    52.184032    41.201849    49.596023
Si    40.797123    20.561692    10.869375
Si    39.176651    21.891457    18.851308
Si    38.171834    10.285283    28.428271
Si    52.398878    29.063729    27.737271
Si    15.135187     3.882327     1.395778
Si    23.667901    52.420038    40.161211
Si    10.082210    43.503617    32.263147
Si    37.983429    25.766105    20.789956
Si    32.760730    24.485183    44.361066
Si    15.402735    35.678064    18.746684
Si    49.221653    39.031737     2.101691
Si    19.864676    47.277926    26.118064
Si    36.873166     6.086874     1.231910
Si    14.430943    19.068027     7.923668
Si     8.666468    51.880027    15.955951
Si    40.004820    17.619823    45.654887
Si    30.448433    18.722569    50.383307
Si    42.016791     8.850105     8.433378
Si    30.324709    18.161756     8.591997
Si    13.373778     1.856532     5.930949
Si    44.333782    54.975970    16.902948
Si    23.403156     1.036609    34.579170
Si     3.607520     2.362094    13.709926
Si    48.591917    32.703610     7.102281
Si    54.093918    32.536885     1.078215
Si     7.927137    25.853982    43.845015
Si    38.926591    46.381253    42.420124
Si    24.033549     8.259006    45.537587
Si     0.510541    22.370630    36.125568
Si     5.947257    47.196691    16.419323
Si     3.230799    47.108462    20.524689
Si    13.287070    10.899825    30.699776
Si    19.970106    37.688398    17.045382
Si     7.016451    49.246095    31.196635
Si     4.911788    54.787566    41.389965
Si     4.714334    18.268898    21.998001
Si    42.117098    26.763816    11.791075
Si     6.136518    30.626642    48.131630
Si    17.545064    15.306249    11.228916
Si    45.653205    42.222470     6.429657
Si    42.051032    40.736197    52.850692
Si    30.398775    10.826215    18.331338
Si    13.114393    18.766001    56.050420
Si     2.674196     1.361085    43.757124
Si     5.342940    13.675032     4.335842
Si    26.030244    34.914777    40.362408
Si    34.122924    17.308305    18.124162
Si     6.858566    33.524189     6.873032
Si    44.843840    25.165673    11.391780
Si    16.006911    27.390567    18.690860
Si     3.885808    31.492728    17.436980
Si    26.080929     6.227973    18.659433
Si    18.238977    41.972565    16.452867
Si     0.626059    28.365577    35.778115
Si    10.609469    39.841186    47.117578
Si     3.717089    10.635423    56.410031
Si    47.602450    50.406880    43.581100
Si    13.602281    36.496771    13.086910
Si     4.580364    47.979722    37.611009
Si    36.293363     0.528471     2.130612
Si    29.070014    23.593774    37.397026
Si    38.297552    55.301037    26.895607
Si    27.613963    43.162528    22.727347
Si    30.565856    39.544993    27.497762
Si    39.368695    14.851662    36.504680
Si     3.259127    23.993081    46.762613
Si    11.365659    13.307378    21.432559
Si    37.707280    41.708670    54.031435
Si     6.517742    45.445392    44.178131
Si    48.871225    54.223364     0.857095
Si     5.223428    47.955638    45.523328
Si    35.608562    42.654712    10.006607
Si     3.879532    28.350416    39.477111
Si    43.820005    31.740148    10.727109
Si     4.176677    20.041983    51.561528
Si     0.628991     0.105189    45.621926
Si    35.185019    21.083739    35.845186
Si    26.127440     4.912117    48.090784
Si     9.744157    44.528660    28.099612
Si     8.734849    14.901891     9.546143
Si    43.033920     5.895236    27.719078
Si    25.403647    21.794592     7.391254
Si    14.234489    31.695439     7.334634
Si    55.371025     2.607487     2.232474
Si    55.897795    52.840577    36.476163
Si    15.056379    12.523991    50.573884
Si    44.358379    18.271528    54.486772
Si    36.997800    38.556401     1.979584
Si     5.876115     3.392019     6.011981
Si    54.221739     7.491340    49.916527
Si    29.863294    39.572280     7.833990
Si    51.672647     9.037412    17.680233
Si    36.915909    30.739682    12.281570
Si    50.269356    40.714844    18.138732
Si     6.595770     5.844002    20.824889
Si    15.093956     1.822344    15.772202
Si    18.352376    31.560342    16.136012
Si    12.429730    50.307276    43.241048
Si    16.952656    19.732678    48.795321
Si    29.738121    19.891618    12.399074
Si     8.162327    50.927622    55.927490
Si    38.402415    36.983134    39.599355
Si    50.361823    30.370257    54.873157
Si     9.242229    34.057812    45.708191
Si     0.683643    13.917625    47.727679
Si    46.880892    30.311755     2.136231
Si    53.975376    17.683028    51.409070
Si     6.476773    25.236687    12.752988
Si    38.737383    18.471734    21.666537
Si    40.242865     2.859542    24.721291
Si    14.419732    27.059737    40.434881
Si    37.517534     1.549136    53.726418
Si    38.875815    10.649974    20.391571
Si     0.660491    54.320078    18.661388
Si    25.117253    15.915771    29.179216
Si    10.559460    15.763667    48.242823
Si    27.458769    17.132619    27.586261
Si    44.405349    50.020025    25.969006
Si     8.557622    53.233020    48.585574
Si    45.115026    55.132331    42.674728
Si    46.159546     7.215699    35.032035
Si    42.162815    45.441002    53.246318
Si    28.382878    37.198163    12.353734
Si    46.450727    34.860252    39.150544
Si    11.257101    47.822283    34.961402
Si    30.046668    46.435800    15.856556
Si    16.451610    30.611743    18.204415
Si    14.337210    42.628493    50.664402
Si    47.085188     2.632114    33.317987
Si     7.564182    29.593408    12.428906
Si    26.245461     6.425735    21.748859
Si    20.852991    25.510983    27.720967
Si    23.020429    51.298796    49.992459
Si    24.364476    44.791442     9.866421
Si    20.150633    13.264224    48.772078
Si    16.879369    39.851734    42.455413
Si    23.146587    18.904770    21.700716
Si     3.273760    50.296189    52.057099
Si    13.412081     3.189332    29.633625
Si    46.130981    12.694644    33.901665
Si    43.633253    18.885463    18.721027
Si     1.823532    44.464592    32.294768
Si     0.631429    40.168818    18.111255
Si    46.396673    46.221525     6.448483
Si    33.882607     0.944717    56.597296
Si    51.981894     8.136369    20.777653
Si    50.210627    51.836382    31.832758
Si     0.790536    10.852695     9.930904
Si    53.102656    25.766701    18.438850
Si    51.535104    48.373174    15.750373
Si    45.562799     2.405460    13.402426
Si    16.897991    49.827494    39.129228
Si    16.452982    40.324199    18.237150
Si     4.490865    42.262713    20.852250
Si    48.933800    27.128087    43.581748
Si    39.795813    49.861365    37.826051
Si    14.766680    49.788795    26.727073
Si    16.670093    12.713513    53.273259
Si     3.750988     2.369638    22.620595
Si    56.021710     4.253898    43.343047
Si    20.327302    23.133979    35.045624
Si    55.620570    15.330402    27.775321
Si    34.247901    44.937198    30.251087
Si    19.210884     4.069807    48.230988
Si    55.229105    24.472998    51.431557
Si    31.840559    39.328107    46.749874
Si     5.207832    22.563036    48.737535
Si    42.844322    46.094374    38.244029
Si    42.100698    53.501029    37.520058
Si    49.865725    50.979935    41.402096
Si    13.726571    47.621007    16.815494
Si    50.986140    48.851607    18.794096
Si    11.033725     0.058571    30.516155
Si    55.196416    26.969646    11.375008
Si    27.382576    40.036235    16.161938
Si    31.600074    38.623195    18.430827
Si    55.452518    47.107685    41.105251
Si    39.436322    26.540117    25.511956
Si    39.827083    10.816443    56.097597
Si    43.431837    17.937345    15.627551
Si     4.026595    27.419434    10.046144
Si     8.046994    48.795320    46.686123
Si    41.612613    51.346600    18.115887
Si     7.625571    39.270019    34.392400
Si     5.788053    41.329054    35.508507
Si    10.650287    52.392196    54.624862
Si    26.965825    38.423300    25.321128
Si    27.257232    40.012780    13.089181
Si    49.837614    50.745541     4.875902
Si     3.134073    29.439079    44.374391
Si    30.175940    56.538475    31.444502
Si    49.624548    33.257226    55.209620
Si    50.397905    44.479287     4.155797
Si     3.592978    14.425217     9.996752
Si     1.731639     1.240284    31.665713
Si    23.340581    38.210063     5.907437
Si    11.107342    28.727080    10.401330
Si    43.126881    44.529894    50.377369
Si    20.558552    36.651621    34.342024
Si    37.505853    40.290870    20.095518
Si    28.164092    52.453385    54.485285
Si    52.614173    22.241235    36.193076
Si     2.502038     6.746928    49.223993
Si    44.337114    39.903046    17.929530
Si    10.897576    24.198305    46.719773
Si    20.036834     8.019048     4.438775
Si    55.908707     5.188021    55.526072
Si    41.929234    13.481742    36.074027
Si    20.817930    31.217249    38.628954
Si    49.790647    19.394091    45.450638
Si    26.455176     5.237199    26.527076
Si    36.710293     2.479593    33.972971
Si    25.123752    40.735268     4.837211
Si    49.320612    40.984037    41.548622
Si    14.468543    23.012642    23.604870
Si    37.776771    48.978350     7.499518
Si     6.794610    50.732360    48.841592
Si     9.520772    43.505051    56.118723
Si    19.170153    21.486109    44.415649
Si    42.861108     2.178976    18.161719
Si    17.655775    14.303332    26.175831
Si    41.813704    28.415497    40.217157
Si    36.876242     2.640914    20.455451
Si    25.904890    10.207257    12.885472
Si    19.109025    28.945034    37.710203
Si    55.663916    48.475804     2.546713
Si     8.525251     0.031495    44.688158
Si    20.565422    24.492587    30.775921
Si    15.036298    13.201026     2.249567
Si    30.449126    53.265887    27.027699
Si    42.825555    14.506608    40.937138
Si    32.840476    32.793007     3.380311
Si    23.866866     4.280906    25.321617
Si     2.205939    12.184612    13.884592
Si    39.790145     2.205554    29.668811
Si    18.826875    46.022903    21.093361
Si    52.944516    37.446902    42.431973
Si    30.135860    32.265721    53.587942
Si    26.165545    37.970591    44.187296
Si    14.811887    53.704512    32.236636
Si    47.601086    18.932864    47.530956
Si    49.199775     1.981485     3.356832
Si    22.269836     5.199649     7.434297
Si     5.274666    52.643609    56.181776
Si    13.162559    18.899361    39.924811
Si    40.111641    21.048569    41.120631
Si    19.373311    37.283632    27.507985
Si    27.201474    44.647648    33.789911
Si    30.110909    11.313618    32.718927
Si    21.100042    25.428298    56.390253
Si     0.276245    52.405128     2.203428
Si     5.679447    46.673020    50.076201
Si    53.986628    27.760608    14.094480
Si    46.653922    22.368672    29.547071
Si    39.067627    11.008126    39.728349
Si     9.517797    28.686874    18.217283
Si    53.601382    29.353003    42.823413
Si    54.908487     2.829338    49.712900
Si     4.778256    12.885297    12.282152
Si    56.116193     0.557099     0.113925
Si    23.804274    13.478139    27.778670
Si    50.903836    29.722986    31.998003
Si    36.544289    48.255033    20.900511
Si     0.871272     5.887613    41.236654
Si     0.961150    30.606931    46.326144
Si     8.430106     2.340200    35.403995
Si    47.134685    14.829510     1.734459
Si    11.028774    24.596558    37.078685
Si    32.391269     7.183158    42.002599
Si    16.014528    55.172508    48.492893
Si    32.719476    28.436307    11.739813
Si    35.617216    17.612723    24.840170
Si     0.657187     3.004984    14.167398
Si    38.680148    28.910049    48.981964
Si    45.198113    31.121645    54.190216
Si     1.788439    11.686798    30.444230
Si    54.148537    50.085342     6.993520
Si     4.976094    41.446343    40.508798
Si    25.973955    47.623478    16.273480
Si     6.544443    16.963908     8.640344
Si    24.564115    39.930468    17.715962
Si    42.909506    27.075738     7.137718
Si     7.961276    19.937025     1.938919
Si    30.135892    22.860666    26.409568
Si    37.953824    48.478339    35.961711
Si    18.503851     8.917967    37.345565
Si     2.980097    21.300644     1.439650
Si    21.007455    18.815338    41.721915
Si    39.115696    19.326493    53.700336
Si    17.448291    26.921309    16.069772
Si    44.593597     0.460347    44.917857
Si     2.996552    35.704317    47.115794
Si    16.795993    23.853801     9.174400
Si    51.536088    54.994182    11.379414
Si    55.410660    54.976141    54.663852
Si    35.530263    22.670728    39.991296
Si    28.152337    41.987334    50.038809
Si    50.318496     9.522113    47.647701
Si    47.178581    22.016286    36.107801
Si    52.476186    46.140617     5.653586
Si     6.290195     8.006268    26.055816
Si    45.926925    49.007584    30.374634
Si    10.042671     5.876493     4.807485
Si    20.189814    54.286903    34.433441
Si    40.899579    25.612962    50.673033
Si    52.096061    40.707404    15.563462
Si     8.279851    27.944367    41.756485
Si    11.642855    28.014759    54.859340
Si    38.134818    10.551100    42.642430
Si    26.015258    48.435119    13.323865
Si    48.926050    34.677375    49.943006
Si    51.635800     8.927208     5.012450
Si    45.584634     5.454493    42.046047
Si     6.517473    41.580029    15.213523
Si    42.673875    36.594007    45.082711
Si    47.023802    22.565964    17.812218
Si     7.883017    36.395632     6.968211
Si    28.239947    46.006205    39.430367
Si    27.615841     8.546271    42.231948
Si    42.526029     3.957783     9.822166
Si     4.384618     9.523254    53.612359
Si    33.690803    31.579265    15.438081
Si    28.237377    53.017732    45.758003
Si    49.180370    17.191559     1.809536
Si    20.998131    35.457979    48.251876
Si     2.690710    42.896129    51.388260
Si    26.065870     4.829943     9.711235
Si    54.455894    43.192245    49.552035
Si    46.453031    19.457720    37.651561
Si    39.565193    17.480203    34.890651
Si    41.893015    20.948859    23.377447
Si    20.474112    28.946840    44.698937
Si    55.933654    39.076420     2.904614
Si     2.951938    30.039028    10.968580
Si     2.137315     8.697768    51.774281
Si     1.907131    35.866199    18.936090
Si    50.479907    47.185690    23.828516
Si    11.637734     2.445011    32.109852
Si    52.063586    12.138205    40.691397
Si    11.244018    44.270180    25.281271
Si    44.570853    55.339696    24.842820
Si    48.141344    33.805903     1.280812
Si    38.452000    34.268868    31.122191
Si    21.915339    10.849300    49.694918
Si    21.212140    17.520463     2.751349
Si    11.772032    49.230800    48.231985
Si    29.559666    37.918800    48.020801
Si    26.103686    13.986765    31.460575
Si    16.353380    56.084992    52.990956
Si    55.269676    54.313653    49.076521
Si    23.211344     1.145643    48.796960
Si    23.320932    40.914854    22.637913
Si    20.024338    54.947819     0.517775
Si    38.265608    22.497896    10.428152
Si    48.451983     5.434518    33.939878
Si    26.554879    11.747538    22.721474
Si    17.610941     3.125500    27.955956
Si    53.679931    48.642352    20.738641
Si    25.797466    23.553408    55.411134
Si    31.642874     6.374243    56.505350
Si    25.081430    41.114240     0.073184
Si     0.010430     3.957136    39.045421
Si    10.943958    42.163551    29.632596
Si     7.927300    26.095045    33.451832
Si    22.514132    52.863179    21.253785
Si    26.889699    49.583313     9.165518
Si    35.958957     5.003339    24.262794
Si    38.402155     4.892552    35.006154
Si     3.544946     2.686273    51.365793
Si    25.861225    30.864206    41.362222
Si    11.727352    28.733634    49.612657
Si    51.564949    30.326221    52.166209
Si    12.429964     8.012876    48.531486
Si    56.314243    22.073634    17.788935
Si    47.387056    28.804054    29.214352
Si    45.668487    46.492339    50.514902
Si    53.069700     2.790889    15.347897
Si     3.308736    18.079871    27.399462
Si    32.552643    27.130943    37.077767
Si    10.429109    34.815242     8.073920
Si    32.740771    28.960424    21.964174
Si    46.261757    25.963994    36.248311
Si     2.813065    10.154233    44.474237
Si     7.328469    12.256643    53.152964
Si     4.766733    32.918985    14.745213
Si     4.903482    34.025495    41.684078
Si    50.074954     6.673341    36.193440
Si    33.052510    36.682807    20.204046
Si    33.837824     6.255410    36.404633
Si    10.373833     5.684684    37.739080
Si    45.048454    40.965037    53.212461
Si     2.704280    45.823692    42.373484
Si    13.867043     6.867289    16.149399
Si     7.425873    56.175030    49.124656
Si    50.522195    34.929246    22.533273
Si    44.069123    21.880348    17.931822
Si    34.254325    18.495125     6.115853
Si    22.767979     7.319389    39.367486
Si    53.146130     1.033778    22.228696
Si    35.205783    31.859001    45.338206
Si    44.034608     9.502944    16.739155
Si    48.778447    13.767246    21.722459
Si    30.379535    18.594480    47.328232
Si    25.440063    14.247940    11.927724
Si    27.140550     5.876924     5.315015
Si    36.684432     5.637979    40.316598
Si    28.317853    34.554477    38.227763
Si    54.909404     0.402518     4.114175
Si     0.335177    45.572763    37.467838
Si    20.440389    10.743460    17.166638
Si    45.469156     1.232766    16.441344
Si    43.977904    44.032372    36.146428
Si    51.494821    40.972596     1.241743
Si    36.850525    15.351344    38.191456
Si    39.631448    29.469123    25.151819
Si    38.259682    37.512304    16.125218
Si     5.737704    50.965531    25.224976
Si    40.254878    52.763115    33.766225
Si    41.629408     4.405785    49.000695
Si    13.236456    31.086710    27.170123
Si    33.877581    47.856200    35.601197
Si    33.547946    50.283540     9.045064
Si    15.630389    26.133341     1.457581
Si    49.076420    18.504612    39.127877
Si    25.794372    23.094990    32.774860
Si     9.741163    50.305071     2.138126
Si    54.510636     8.167914    16.776735
Si    23.288098    34.300165    41.485019
Si     5.457386    29.884233    32.369272
Si    24.311587    16.123007    21.101818
Si    32.511306    32.658680     6.360079
Si    21.258428    48.859273    19.503381
Si    44.171668    39.713590    36.702719
Si    49.678882    54.916742    49.545900
Si    11.966014    50.204286    40.136220
Si    50.312755    24.787323    29.447962
Si    49.528080    42.891792     8.560859
Si    29.266973    33.122171    47.457829
Si    46.006838    16.075171    27.242445
Si    34.081061    48.971311    45.361383
Si    53.169817    54.919459    21.027305
Si    35.792482    50.024221    18.532768
Si    16.603044     2.179851    37.368316
Si    16.157260    41.747140    20.882606
Si    15.793401    24.989132    29.189206
Si    44.113390    23.289759    25.241032
Si    49.378734    50.968028    20.468854
Si    52.409127    48.428470    43.854325
Si    12.340859    14.907245    12.952889
Si    53.375975    22.097566    32.011823
Si    55.855094    53.843445    21.226990
Si    41.621491    50.666729    10.926168
Si    34.975229    34.327090    47.105614
Si    45.809636    16.026993    15.726731
Si    35.706046    49.983659    34.457824
Si    40.922423    51.543305    23.346708
Si    20.954237    49.189999    50.269738
Si    34.162506    44.605737    47.880434
Si    47.074940    30.246887    22.427270
Si    43.182560    40.530352    42.348518
Si    46.731189    41.828006     9.296536
Si    17.129577    13.069563    39.706673
Si    49.523399    13.844351    40.296963
Si     4.038739    43.270088    54.146914
Si    32.847768    52.865383    53.820561
Si    11.763969    55.308555    40.463230
Si    14.688632    10.980875    39.681288
Si     0.744001    55.077408    10.738025
Si    12.005517    18.369643    47.352236
Si    38.079403    27.817555    23.092526
Si    54.605322    42.352506    46.518661
Si    31.864527     1.608789     5.858482
Si    39.983083    36.422131    18.526405
Si    17.718748    24.215017    50.099850
Si    23.691203    39.632786    44.262323
Si     5.936291    41.090985    54.223136
Si     6.414219     8.389670    15.719732
Si    29.116675    12.458560    24.284648
Si    28.544698    51.897808     8.240174
Si    24.527075    14.045865    19.055625
Si    41.322148    15.017939    27.859529
Si    21.722856     8.338214    34.330746
Si    44.996558    29.767306    20.010748
Si    16.042563    12.762213    19.712974
Si    16.285147    29.186588    48.317268
Si    11.824395     1.583097    39.168805
Si    26.331978     0.167114    35.515909
Si    44.096801    11.477562    21.856089
Si    34.596543    53.983716    43.945132
Si    43.623076    24.118335    20.228039
Si    50.479982    41.688819    29.402836
Si    27.890550    35.009296     1.400080
Si    17.023192    28.311405    24.510277
Si    24.580121    23.667121    48.417600
Si     8.773336    48.688860     9.001514
Si    50.416763    36.506850    15.605748
Si    26.152761    18.002159    49.178576
Si    46.205278    41.536017    27.359484
Si     8.093218    16.949735     1.435904
Si    25.173761     4.320074    43.084853
Si    18.360960    18.599491    28.058499
Si    53.568783     1.454855    18.159986
Si    31.815078    47.499376    53.289355
Si    33.136714    38.341674    29.099998
Si    46.569172    47.551358    47.765070
Si    20.891732     0.014041    36.351967
Si    54.618834    23.628525    19.920590
Si    12.276893    39.083446    26.300319
Si    27.119155     8.607105    45.271502
Si    32.449988    44.327860    39.767680
Si    29.944948    29.717759    44.304758
Si     4.367085    30.058494     5.697626
Si    41.235977    55.670312    33.716637
Si    22.900663    12.365810     0.055859
Si    43.989438    42.462578    29.273979
Si    27.881566    38.240620    28.359108
Si    22.591820    33.186512     7.158340
Si    15.547589    16.844352    56.506171
Si    30.786043     1.700139    14.422803
Si    54.341103    54.129373    10.905273
Si    35.840525    46.315692    16.575247
Si     8.791390    29.144522    36.347583
Si    16.329226    42.514818    24.825218
Si    20.678508    13.496413    36.726151
Si    35.769693    28.229159    28.213703
Si    34.539476    15.415610    26.813294
Si    49.603237    46.700080    35.784827
Si    15.500922    25.713166     6.886142
Si    49.269002     3.318764     7.964220
Si    29.423638    14.463900    13.059288
Si     9.870166    35.862062    42.154644
Si    46.808477    12.742718    39.662962
Si     7.796101    41.731679    49.515436
Si    43.956558    18.945383    44.591953
Si    50.450365    27.821763    20.601035
Si     2.098487    44.222760     2.103102
Si    12.043463     0.800713    24.799790
Si    47.782231    10.846969    15.069719
Si    51.905569    10.482451    43.188217
Si    36.094356    52.347957    20.659964
Si    50.861297    20.775530    40.224510
Si    38.731015    38.957986    50.902781
Si    20.324484    38.562530    52.116409
Si    19.075568    34.473455    32.597005
Si    19.711752    22.836885     8.445846
Si    35.988827     1.347803    38.397957
Si    28.266247     5.299295    24.098079
Si    42.453182    18.471790     0.335788
Si    52.478519    39.864919    37.619165
Si     2.128163    43.219819    22.629043
Si    18.666308    42.533568    54.963052
Si    32.158238    53.975039     2.209094
Si    34.715191    16.165810    15.138766
Si    48.684488     2.159339    26.144185
Si    56.452558     5.602907    50.334267
Si    43.854944     6.065834    30.603558
Si    21.081049    27.139666    47.119406
Si    22.997726    35.599931    20.472740
Si     2.348729    53.470795    15.065266
Si    10.640645    46.622071    42.974043
Si    40.395696     1.128221     5.494688
Si    54.347807    20.254873     9.285488
Si    32.105821    25.539253    15.322200
Si    30.987814     9.580107    12.905548
Si     3.071892    46.581600    17.537962
Si    56.050998    25.281907    54.271983
Si    45.545657    15.593434    39.835119
Si    27.029310     3.561391    14.196580
Si    50.243603    27.979464    29.681865
Si    15.298798    32.555074    29.151884
Si     9.908970    55.399054    20.867610
Si     6.941375    33.506688    26.726451
Si    37.799185    11.446111    13.247764
Si     5.725130     3.418972    43.285163
Si     9.075379     0.395560     0.188840
Si    38.688041     8.525564    18.179010
Si    35.391643    30.875616    38.101742
Si     7.034553    46.134064     2.850300
Si    36.376750    41.217283    28.977101
Si    30.148107     6.827986    38.512881
Si     0.484055    13.743701    42.402461
Si    13.503341    52.828262    39.886810
Si    17.965146    40.267541    53.069388
Si    26.643096    48.044918    24.386106
Si    22.905675    55.240830    12.318855
Si    31.411843    26.689213    20.214086
Si    54.007013     9.894498    34.600862
Si    11.333192    53.635137    34.171678
Si    24.648494    41.961763    20.096515
Si     1.525383    41.280340    15.318799
Si    29.102249     4.272171     9.791762
Si     9.099478     9.286537    41.435734
Si    53.997522    56.484695    28.292946
Si    41.228358    48.038595    47.056475
Si    12.629213    13.842925    41.081017
Si    21.942657    39.557570    49.769153
Si    44.075212     9.067075    31.587038
Si    25.784621     0.896821    52.258424
Si    22.050171    46.678214    13.255882
Si    21.416641    49.175902    24.333633
Si     6.498851    15.774203    21.366636
Si     9.619445    12.744260    44.967269
Si    11.291821     7.949030    39.736748
Si    28.104620    23.992109    24.280325
Si     9.666184     4.700649    31.971526
Si    40.225998    25.769105    42.928289
Si    41.828959    13.361992    10.496966
Si    42.051952    11.475332    39.977155
Si    24.535373    20.522919    23.743798
Si    18.188530    40.378533     0.785193
Si    18.535908    36.182369    51.961575
Si    12.592047    18.485610    30.060276
Si    10.823896    15.302082     1.535458
Si    34.823199     2.757405    54.338672
Si     5.650133    41.618255     1.717662
Si    47.187314    36.067371     9.983179
Si    16.858040    47.619865     9.967582
Si     0.362580    39.721667    43.510026
Si    43.511253    55.543618    38.996254
Si    28.777693    41.773121    37.256418
Si    54.463522    20.813627    45.639763
Si    23.880969    45.757855    41.616627
Si    50.192277    14.949716    28.212226
Si    20.479666    42.046372    14.533353
Si    46.291087    34.045763    15.169395
Si    17.006750     2.428567    23.737478
Si    15.994512    38.352860    13.960011
Si    44.209488    51.494754    30.628811
Si    17.529080    38.262825    55.473325
Si    21.577096     4.764524    37.876868
Si    36.524579    44.118706    35.428882
Si     7.440506    31.759525    16.071173
Si    12.067962    37.276368    47.169729
Si    31.407281    48.372719    46.374057
Si    19.497526    43.458869    50.071495
Si    35.598032    51.002588    43.924936
Si    19.916962    46.331722    44.453975
Si    53.495465    48.800332    28.750800
Si     7.043979    34.853200    14.320841
Si    44.434656    23.571191    36.227073
Si    49.283348    35.744714     7.704786
Si    10.368821    31.847101    52.487121
Si     8.620258     7.382867    35.798101
Si    21.725279    15.652686     8.279068
Si    18.045957    34.408902    14.844708
Si    35.612750    52.635796     5.309461
Si    44.895328    30.441474    16.424337
Si    46.573536    47.464510    21.680903
Si    13.993083    16.803120    51.804931
Si    32.945143     2.119824    22.944021
Si    13.601489    52.799529     7.186892
Si    32.870043    11.159224    34.117471
Si    17.830825     4.663799    41.611041
Si    32.988173    45.305917     3.225967
Si    44.156251    36.835070     5.530702
Si    13.341367    17.836288    37.028504
Si    29.771744    24.065418    11.955726
Si    45.714755    27.488201    43.579787
Si    56.367782     9.748808    31.031093
Si    20.257801    14.829802    19.361385
Si    23.579195    13.508687     4.677885
Si    33.398620    22.774939    51.315835
Si    40.697185     6.249536     7.163248
Si    43.560684    47.070008    31.224123
Si    42.027944    48.536964     3.487813
Si    35.767931     7.832916    54.110098
Si    23.493711     3.651488    32.885046
Si     6.413834    10.368626    21.080528
Si    41.951357    53.535227    50.777275
Si    25.691419    24.329083    45.582088
Si    14.221430    48.147904    39.181801
Si    40.857368    53.839752     2.561037
Si    36.750895    21.945862    23.708041
Si    30.456246    50.382428    20.133481
Si    16.770596    40.915447     3.496908
Si     9.319962    26.048955    39.705756
Si    30.132926     6.887540    14.057204
Si     9.465898    24.046804     1.932198
Si     3.140703    55.872348    22.835731
Si    31.463360     9.766898    38.589610
Si    46.069038    50.344429    38.098330
Si    23.701757    39.505603    27.514804
Si    29.688234    31.388537    31.868465
Si    21.410887    21.524176    51.852720
Si     2.313504     6.473434    22.367395
Si    22.841814    21.448563    28.330305
Si    16.465638    51.848464    22.797162
Si    52.500754    50.620451    24.319975
Si    41.859452    19.305024     6.030078
Si    40.548725    17.517647    10.954192
Si    10.237646    46.783926    53.048814
Si     3.788754    37.103932     2.192636
Si    24.196402    26.751271    29.663887
Si     1.490131    18.348860     8.781846
Si    36.801525    51.706580    51.083513
Si    43.314054    50.631826    50.542707
Si    21.924249    28.724812    14.927021
Si    11.882512     0.434486     1.142877
Si    10.360877    19.038224    16.077748
Si    24.019254    13.324805    21.986252
Si    49.425436    23.521196    21.481626
Si     6.842352    28.963502    16.851954
Si    54.265742    53.041101    25.276049
Si    38.179283     7.494493    42.439671
Si    12.092296     2.875571    44.922227
Si    25.219074    54.085599    27.891308
Si    40.858735    39.415660     2.428981
Si    25.056180    48.801349    30.780234
Si    29.606835    26.530639    56.269084
Si    38.437552     3.008108    12.968607
Si    53.758517    41.292717    32.333709
Si     5.034352    15.699610    26.609198
Si    36.975535    43.668179     1.656493
Si    39.611943    44.766724    21.849874
Si    19.336706    16.140578    22.227929
Si    30.951066    42.741261    27.437441
Si    34.347740     5.667834     7.239699
Si    54.135930    32.016703    52.232503
Si     8.945779    11.941723    30.210520
Si     2.369686    56.540919    15.304403
Si    56.207482    18.288111    49.299873
Si     4.295641    19.747132    47.596646
Si    38.014146    11.027744    23.532818
Si    43.616569    22.955081    33.145440
Si    34.164877     7.222324    39.486314
Si    50.371627     1.982998    29.588519
Si    25.276918    29.147787     5.210245
Si    42.530492    17.853298    23.242359
Si    24.137472    44.933877    20.685249
Si     4.236900    10.175800    27.338195
Si     3.292482    16.964221     2.618127
Si    28.883953    30.293866    51.656360
Si    39.603587    43.439277    43.110905
Si     0.623503    13.297441    20.075141
Si    52.435099     8.079795    32.598140
Si    12.742450    10.256008    56.125829
Si    54.647465     8.875754     5.707154
Si    26.224009    46.469351    48.776263
Si     6.252019    22.390706    54.340953
Si    40.206518    28.450954    37.636701
Si     1.566353    43.900771    55.581326
Si    24.590925    52.493897    23.290975
Si    47.233215    22.905703    42.655113
Si     2.237976     0.116050    18.352076
Si    43.942685    12.834891    55.819528
Si    31.448244    48.796487    10.636233
Si     7.751879     8.057550    11.059665
Si    19.908543    36.830118    54.537494
Si    38.568012     0.487415    56.480000
Si     7.555064    48.375469    53.820586
Si    12.096720     9.562912    33.161965
Si     8.212438    42.150347     5.628164
Si    55.886755     9.243624    22.161778
Si     8.621825    29.405412    22.072788
Si     2.083896    20.573372    26.040009
Si    52.087311    37.304291     8.308166
Si    27.267161     9.532262    36.520322
Si     8.093414    19.290424    36.133999
Si    12.295971     3.796165    13.334520
Si    11.622995    16.302782    21.147886
Si    14.904695    13.283928    43.200067
Si     9.552522    18.649123    29.494187
Si    52.685559    51.120165    42.478662
Si    16.058696    18.988732    23.689139
Si     1.788040    13.390358    35.657664
Si     7.286156    44.079083    36.301385
Si    16.366140    48.966082    16.472051
Si    26.446426    31.528709    55.391172
Si    45.364717     6.875138    21.009266
Si    12.525370    51.580576    52.183517
Si    12.039190    49.817236    25.182535
Si    41.980418    55.743574    45.867430
Si    49.826134    28.320533    34.542546
Si    53.088626    35.467670    38.288047
Si    34.132034    50.794228    55.766825
Si    16.229115    22.985506    16.880713
Si    25.147756    18.105199     4.686514
Si    23.728592    55.510376    53.475194
Si    51.197126    44.244918    53.250936
Si     5.444815    37.976645    31.379903
Si    23.929379    11.192737    51.968563
Si    25.030120     5.861299    14.685744
Si    51.869441    40.681507    23.852990
Si    30.811135    42.573442     7.480965
Si    13.677584     9.639250    35.887840
Si    15.037112    40.654209    12.317831
Si     7.566397    55.522565    37.907230
Si    16.451079    44.483553    22.350577
Si     7.771309    40.381976    39.496622
Si    25.305575    52.721532    14.880087
Si    34.732321    34.127197    52.483708
Si    37.229425    44.937053    47.553991
Si    29.918589    38.972846    24.498439
Si    37.872553    23.579142     0.218471
Si     9.995449    47.348261     2.886556
Si     3.138591    21.412624    35.020001
Si    35.336654    41.089199     1.233815
Si    51.750212    23.260813    19.360127
Si    41.228479    12.860988    33.191370
Si    19.145740    56.170380    42.169176
Si     3.883664     4.539849    20.441355
Si    16.871276    49.177438    54.195561
Si    25.669695    45.369377    23.483368
Si    40.732527    40.263459    31.252321
Si    11.558349    29.605197    16.031742
Si    16.453209    15.293098     3.869797
Si    27.579166     3.373005    28.926728
Si    45.160190    30.194970    45.118835
Si    40.517138    10.656027     6.217799
Si    35.647917     2.620753    25.992026
Si    55.715181    20.875180    54.284856
Si    37.948414     9.362053    50.023811
Si    18.846631     1.133671    32.050080
Si    13.430100     1.798303    34.548684
Si    50.231077    16.035790     9.690149
Si    40.013625    46.387667     4.362727
Si    52.794047    45.494045    50.962652
Si    49.760636    23.702307    36.475021
Si    32.350436    33.138375    31.764124
Si     7.875963    22.667024    13.610747
Si    42.893703    41.051693    23.743066
Si    38.734331    10.039251    15.608042
Si    24.267417    26.965024     3.364812
Si    23.460180    36.901585    14.780586
Si     8.192505    32.254674    54.728835
Si    41.185386    22.298659    46.876224
Si    55.601416    35.926394    33.192322
Si    37.588514    11.391388    52.282734
Si    32.327259    35.170888     9.463470
Si     2.104557    16.748992    53.583201
Si     2.419716    36.318478    53.607809
Si    13.911390     7.806121    19.120408
Si    55.146001    36.444297     7.909874
Si    38.640445     4.281904     3.009133
Si    36.635484    45.750481    22.540119
Si    40.303247    10.011226    33.202579
Si    27.193638    35.913680    18.638925
Si    30.646799    10.834496    48.907642
Si    53.786517    32.047753    24.978710
Si    51.378541    19.487992    51.123658
Si    24.841875    53.506928    30.982788
Si     7.729750    14.603342    48.806758
Si     4.448916    20.391572    37.583658
Si    26.737980    42.847075    29.786774
Si    23.663387    43.152143    52.685473
Si    54.511263    13.760438    11.451954
Si    55.544147    40.694121    25.017332
Si    13.473890    34.683571     7.565039
Si    56.537640    38.581244    36.085335
Si    32.626705    11.967047    28.188597
Si    11.307093     2.942710    36.463339
Si    11.104569    56.565001    10.711779
Si    33.383318     5.036103    22.384808
Si    24.221164    28.937183    36.628464
Si    16.050796     7.839579    50.680458
Si    35.193484    43.718955    18.348843
Si    46.760199    17.685870     6.824884
Si     7.172063    52.303550    44.599045
Si    37.249603    36.730829    42.540699
Si    46.128859    10.763030     0.373274
Si    15.453135    16.185384    32.515332
Si    10.580809    22.271155    35.320296
Si    29.231815     0.110663    16.818731
Si    38.636666     5.487558    38.079480
Si    12.636250    50.660694    56.238307
Si    39.557826    35.488621    44.562639
Si    17.901523    40.690896    23.064132
Si    34.620758    48.472606    53.907109
Si    28.339405    13.763019    33.669162
Si    31.974892    38.167555     9.583104
Si    37.004486    14.342974    51.739274
Si    20.796234    27.752138     6.392728
Si     6.648620    52.847943     5.025591
Si    25.656119     0.305402    23.100954
Si    49.203359    40.985741    35.677924
Si    39.633821    27.184978    33.673258
Si    34.067856    27.683751    30.926698
Si    10.834952    12.500067     0.222795
Si    40.927143    39.610429     7.700316
Si     9.633904    16.993214     5.510725
Si    27.651509    50.222023    29.455835
Si    15.513337    21.371512    25.889260
Si     1.114623    40.275480    22.829058
Si     8.297139    12.779618    33.117709
Si    10.164155    23.165325    22.182029
Si    45.008024    11.767230    49.956268
Si     6.588893    32.012147    50.847199
Si    51.975082    21.142587    16.886040
Si    44.576926    33.464795    35.001358
Si    55.228344    18.633167    56.358774
Si     9.871938    21.915909    11.186455
Si    24.055443     5.207938    45.818434
Si    55.644756    37.826407    14.222936
Si    18.353016    52.289920    17.238776
Si    19.380626     3.572184    22.354099
Si    41.635771    16.399491     6.969317
Si    16.831485    50.638241    48.093326
Si    42.537314    37.768670    52.254075
Si    31.759168    13.281341     9.401523
Si    52.235034    22.330990     2.944413
Si    25.802045    41.328574    53.606641
Si     0.653285    21.724573    23.656258
Si    19.828594    17.234344    10.263631
Si    31.809711    36.409462    34.283920
Si    19.827693    40.995772    42.490872
Si    18.446790    28.918517    42.279538
Si     4.780298    23.612798    17.737116
Si    16.054092    34.913890    33.319316
Si    51.481769    17.552813    43.619227
Si    32.146276    49.500505    37.632871
Si     0.082523     0.314658    49.847408
Si    29.995083    41.079469    13.136955
Si    31.039197    35.479639     5.805944
Si     8.098891    10.079885    45.824318
Si    13.297316    41.927796    25.049709
Si    39.058565    19.265283    17.293016
Si     0.599577    45.314020    44.613864
Si    25.344179    53.258327     5.211494
Si    46.114903    55.901507     9.419388
Si    31.340085    35.832416    49.260907
Si    12.946243    24.305657     6.390251
Si    55.308263    11.946457    32.799258
Si    38.755778    26.035504     7.708383
Si    24.334091    35.577410     7.285782
Si    13.047870    21.629971     7.707479
Si    29.427386    30.290332    24.708522
Si    13.788387    40.134474     9.738515
Si    33.375902    29.859062    40.184384
Si    33.423087     6.885713    49.790285
Si    48.839004    26.900653    46.655788
Si    28.052529    21.904086     0.359219
Si    37.154822    26.229863    12.922162
Si    22.911998    42.289049     6.162715
Si    46.458050    10.256008    29.978282
Si    12.322296    11.978315    51.782015
Si    18.731814     1.076428    11.531200
Si    55.291262     5.027050    12.920725
Si    28.045674    14.129359    42.217491
Si    18.284532    31.727178     2.179177
Si    44.836954     2.801357    53.734006
Si    21.375196    34.541372    36.446368
Si    33.858239    21.941883    16.938097
Si    23.873996    40.568535    35.442860
Si    23.597600    45.986299    37.097134
Si    35.886546    17.686322     1.835969
Si    54.410750     5.070730    16.707710
Si    51.857163    18.410916     5.395488
Si     6.840185    44.209296     0.593155
Si    11.634178    33.733582    41.044224
Si    50.747942    46.046280    44.288368
Si     3.064722    12.136824    33.305006
Si    10.424706    10.648148     4.198073
Si    21.015069    49.614828    13.227562
Si    42.192850    56.023569    41.642986
Si    11.567314     1.501491    27.872105
Si    37.429600    17.119435    40.750469
Si    18.471437    15.032701    16.655574
Si    45.774154    20.027094    42.368035
Si     7.911013     7.608155    50.450782
Si    12.666367    44.565585    48.657737
Si    48.259658     8.173614    49.542001
Si    18.489578     9.619945    46.804074
Si    40.849855    10.964065    23.918256
Si     7.146155     8.205525    43.756672
Si    32.190607     1.636675    49.958219
Si    12.710276    19.812232    32.873408
Si     3.286709    53.101474    43.372022
Si     1.790587    40.108432    38.193203
Si    41.123491    32.955108    54.311283
Si    26.675686    31.591232    50.102636
Si     0.323596    53.526811    43.369151
Si    28.219116     1.193212    47.345454
Si    14.492540    17.252005    21.645541
Si    51.926872    35.175155    50.324783
Si    29.099482    37.510489    16.802003
Si    56.504596    47.978092    13.729077
Si    36.761816    14.175372     7.561599
Si    50.489817    18.772115    48.292297
Si    29.310204    12.730421    46.960816
Si    14.982491    18.615275    34.462798
Si    47.653598     3.145305    28.733169
Si     0.872034     0.844587    34.768144
Si    36.521015     7.829374     8.130879
Si    38.667381    42.357318    14.088664
Si    26.138781    20.365182     2.252427
Si    55.484154    52.000381    30.093023
Si    36.217314    25.615082    18.231947
Si    32.145780     6.536190    16.284154
Si    51.235387    34.647941    11.539970
Si    11.841008    25.546044     8.946011
Si     6.702042    16.636069    36.098752
Si    34.584008     0.968193    11.759733
Si    41.816651    31.671799    24.665071
Si    38.929595    56.208351    45.226282
Si    21.781058    18.181307    31.826629
Si     9.472959    56.101364    13.480274
Si    32.151381    48.087563    41.959127
Si     3.789161    32.423957    29.468392
Si     0.521345    40.307871     7.178152
Si    36.168890    39.784238    10.098544
Si    16.613694    15.527329    52.635793
Si    27.075938     2.550617    49.945700
Si    31.658726    27.057477    54.301090
Si    53.294459    31.058064    33.228339
Si    51.423507    13.524179    52.397486
Si    26.489070     4.471346    36.354241
Si    26.130538    11.920138    29.106593
Si    41.657162    29.659903    10.693740
Si    19.599624    33.039316     6.678036
Si    21.462600    43.848943    37.840870
Si    53.395554     3.142621    11.390990
Si     5.448243    20.341832    56.533565
Si    22.476954    37.318224     2.912942
Si    36.373998    14.777869    29.117791
Si    17.925742    45.646510    32.787511
Si    27.157394    37.111674     3.403482
Si    27.776581     4.011821    17.249550
Si    21.295623    24.245972    16.334562
Si    49.320209     4.418789    18.086323
Si    32.206341    31.334462    12.702505
Si    18.117753    53.724564     9.204825
Si    10.159210     9.613814     9.447796
Si    16.240092     0.101464    41.655482
Si    48.785680    26.830589    51.959176
Si    48.555461     7.722592     1.660820
Si    17.213085     4.504523    20.320754
Si    12.652312    19.797102    14.098050
Si    43.427845     4.250363    23.739708
Si     6.813935     7.327518    30.085627
Si    41.807552    45.009627    47.537926
Si    34.374532    31.913635     8.696262
Si     4.302438    11.797957    22.955494
Si     6.548468    55.937322    30.577785
Si    35.829078    10.916479     3.393277
Si    17.854740    28.927058     9.557413
Si    22.835932    23.425961    44.515209
Si    51.838367     0.932119    39.969348
Si    34.849487    21.012613    21.560376
Si    25.855778    40.130514    10.436426
Si     8.811879    12.277085    20.017661
Si     2.524745     8.137119    18.022416
Si    13.905610    36.887333    51.787405
Si    22.529116     0.419776     4.485256
Si    53.629896    53.297155     5.098168
Si    18.587388    42.217801    27.142502
Si    25.394224    25.854123    34.397552
Si    48.437408     8.806824    27.970338
Si    44.081511    23.522182    46.549778
Si    54.077875    43.992574    31.450941
Si    10.415268    35.049013    48.453716
Si    56.292651    22.917717    13.108619
Si    14.639389    53.540767    53.315194
Si    27.906558    12.321983    11.675775
Si     3.012705    36.541466    41.993902
Si    15.200448    21.237443    56.121401
Si    31.617987    22.405836    18.794599
Si     6.806483    27.608442    49.189023
Si    18.827661    19.973862    37.876088
Si    43.874524     8.522783    45.855501
Si    46.972982    34.944044    36.098530
Si    18.916267    38.983012    19.605867
Si     7.670621    31.360268    45.415497
Si     4.060173    44.270682    48.987340
Si    12.865222    55.022681    48.382008
Si    20.161621    22.518758    49.239807
Si     4.279616    55.582512    56.099457
Si    24.248410     3.134143    38.012961
Si    43.745816    38.429921    15.300880
Si    12.831560    13.775919    26.125252
Si    36.518325    52.467832     0.546302
Si    55.376905    21.193009    48.652960
Si    34.770560     0.522165    19.292315
Si     7.741379    36.279795    44.309098
Si    53.092482     3.671897    44.391650
Si    15.144076    52.809091    10.116658
Si    31.572406    36.743850    23.109387
Si    45.776843    17.026941    19.959069
Si    34.423331    42.613702    32.606394
Si    40.455808    53.810936    19.329459
Si    44.044203    27.372105    24.873553
Si    38.195045    26.125453    15.886944
Si     4.021836     2.490718    38.801848
Si     0.068249    33.948393    35.115122
Si    14.083145    34.932963    23.861085
Si    33.677917    50.187587     5.991604
Si     4.922977    12.539537    17.625199
Si    22.093538    53.041006     1.584501
Si     2.873933    27.046426    46.277484
Si    43.785230     5.083250    13.678374
Si    47.078261     3.442704    46.068346
Si    13.120527    29.590228    39.030340
Si    34.803112     2.555899     6.705091
Si     3.669886    29.932184    55.131406
Si     8.826762    22.310814    26.515789
Si    46.253824     5.154993     4.663406
Si    29.523115    44.032391    48.705065
Si     4.348152     2.738507    45.932787
Si     7.878030    31.185033    38.356161
Si    37.076121     1.779395    44.379177
Si    44.756407    27.389822    40.630480
Si    17.239429    30.774765     7.096164
Si    52.291099    15.835879    16.078636
Si     6.097304    12.160168    47.328883
Si    32.144615    51.140153     3.669608
Si    35.076003    34.278507     4.537806
Si    13.159309    27.275643    14.721075
Si    26.019087    32.830331    28.007569
Si    55.577274    16.913042    18.836543
Si    47.612072    35.924760    42.087367
Si    22.562626    51.466559    18.431154
Si    33.879573    34.297120    34.373738
Si     7.060835    32.673822    35.674811
Si    51.985757    39.884132    34.627923
Si    47.550656    24.562865     5.845167
Si    12.948864    33.124712    48.412571
Si     5.296666     6.478455     9.953214
Si    45.927171    14.634178    50.789939
Si    41.268733     3.966988    34.049682
Si    13.674021     7.473627     0.528870
Si    26.616670    15.920687    44.269096
Si    12.374423    40.978479    41.401017
Si    24.550191     6.921442    28.169315
Si    11.583355    45.501065     0.840501
Si    50.775116     5.780712    22.257689
Si     3.324201    48.529296    43.216567
Si    34.441059    44.914993     0.521412
Si    13.610410     6.224819    29.340394
Si    32.268460    42.768318    12.403624
Si    36.950293    30.463149     9.330311
Si     6.552877    37.713973    38.699267
Si    35.189661     0.099182    30.164061
Si    34.232529     3.847028    49.017614
Si     9.502216    42.709764    12.393057
Si    14.440134     5.481842    21.215469
Si    41.895580    11.057889    31.089683
Si    15.482916    14.463947    17.323822
Si    28.907344    32.252858    22.253704
Si    28.263982     0.347691     4.821366
Si    52.636515    30.237384    48.031127
Si     1.783281    20.400037    19.248258
Si    17.575992     3.476237    53.398486
Si     3.078197    56.202692    39.514450
Si    30.750139    46.949444     5.760534
Si    16.637003    43.269336    29.125037
Si    18.123498    52.507899    25.313765
Si    55.842724    28.892881    16.297685
Si     9.430354    48.174122    11.736385
Si    21.442400    32.731624    53.533395
Si    45.274807     8.302417    48.566769
Si    39.851875    40.593611    34.147027
Si     2.831226    26.168775     1.729480
Si     5.679260    42.201662    47.393335
Si     0.989104    49.471984    34.800698
Si     0.312861     7.167566    32.692123
Si     0.895014    45.985098    22.137657
Si    26.145348    46.057329     5.182520
Si    29.804419    24.451949     6.531739
Si     1.487175    50.783605    28.980089
Si    50.893262    51.881838    26.517104
Si    55.981645    32.637712     5.560268
Si     5.312864     4.212059    55.765304
Si    47.459159    17.485052    41.543938
Si    52.519789     0.938381    42.996351
Si    12.101067    47.790775    55.406287
Si    25.903875    22.383047    19.494026
Si    24.855777    39.100143     2.288455
Si    14.816256    45.577215    13.831726
Si    43.950213    39.931692    12.452008
Si    33.489974    24.460332    54.094795
Si    31.114995    10.459528    22.994677
Si    33.815104    37.344588    14.226582
Si    24.371436    20.406926    48.251062
Si    18.411040    24.071290    15.374117
Si    55.262198    11.112518    54.049186
Si    38.184017    27.706894    44.105082
Si    41.375247    17.501987    20.429479
Si    52.331925    30.951670    18.531032
Si    34.892161    47.256260    27.151171
Si    49.893370    18.119847    55.484630
Si    29.962383    22.223636    44.194011
Si     9.390886    27.025754     5.899310
Si     3.984057    22.859692    26.716573
Si    10.771505    34.377219    55.822084
Si     4.477238    45.077993    36.406749
Si    46.517285    39.190456    10.735416
Si     2.880815    37.453445    49.631258
Si    13.724748    24.369831    15.739356
Si    35.329579    52.384280    36.519903
Si    54.215788     5.953040    20.666396
Si     4.925061    54.333902    20.900064
Si    26.972974    49.465136    51.544386
Si    12.953408    45.882942    41.036180
Si    17.445513    20.582047     5.930464
Si    16.015014    39.774302    39.480476
Si    34.343226    47.031165    49.830050
Si    27.289904    37.101070    34.082574
Si    55.238586    26.709060    34.013029
Si    29.722730    26.081575    33.311311
Si    18.510386    25.973396    25.765020
Si    19.197210    49.600231    15.736505
Si    12.689267    48.017762    19.540973
Si    36.169433    30.794445    55.949237
Si    15.817465    55.105102     3.031350
Si    37.962234     7.809078    26.672342
Si    20.660765    42.344379    23.406701
Si    37.668632     8.423308     2.931332
Si    41.973744    22.485257    54.010034
Si    36.246889     9.012652    22.482016
Si     4.309730    35.582836    51.434014
Si     0.784582    21.052627     3.620676
Si    13.670126    26.960393    43.337405
Si    53.254926     4.950212     2.496841
Si     8.618482    26.499860    46.802319
Si    40.053029    46.331722    55.311160
Si     6.211965    47.957247    26.298778
Si    53.281798    55.157229     2.565470
Si    38.282965    43.699119    29.838296
Si    17.418733    11.189059    12.441503
Si    10.625208    45.573865    12.800065
Si    24.515109    26.613437    41.623229
Si    14.643144     2.922232    49.119197
Si    18.975679    52.501338    52.446105
Si    36.263146    12.464181    39.340493
Si    53.218764    36.318519    52.981744
Si    32.903360    19.461354    40.771302
Si    27.366828     1.393871    41.171231
Si    53.823647    42.317305    11.530227
Si    29.898979    18.916889    40.276047
Si    29.984801    54.445991    24.150227
Si    25.157720    37.826751    39.178614
Si    25.876610    28.807727    33.883792
Si    21.081218    49.856148     3.605080
Si    35.475577     3.091109    13.652562
Si    26.658733    45.881766    45.772864
Si    16.196137    30.817127    56.525531
Si    24.936800    23.658051    39.206511
Si    24.281651     8.608404    33.021141
Si    54.615488     9.141735    43.114525
Si     3.460400     8.309171     1.778229
Si     8.789997    25.694543     8.592994
Si    20.078071    52.533665     4.215839
Si    52.886739    22.873030     8.764010
Si     9.031653     9.392667    26.596669
Si     3.388747    23.972396    29.271958
Si     7.975224    16.646371    25.683865
Si    22.061003    23.110657    40.179844
Si    16.357633    55.498626    45.404910
Si    50.823511    30.225986    39.539237
Si    47.224845    54.083544    25.397725
Si    39.614657     4.690689     9.620581
Si    12.563286    52.878812    44.785579
Si    28.867692    23.415279    32.124005
Si    22.433948    27.771422     1.165666
Si    56.038232    14.191516     1.674127
Si     9.987202    23.285496    55.486577
Si     1.110845    15.403520    33.236531
Si    54.937629    40.226557    29.577791
Si    45.426387     9.093500    23.268374
Si     7.884603     4.564046    39.317813
Si    19.214960     2.680118    50.882689
Si    54.763310    21.110538     1.756589
Si    13.245149    43.665392    36.374633
Si     1.752586    45.907712    29.460581
Si    45.217144    26.638388    19.252371
Si     3.801209    32.720359    26.468798
Si    18.355283    14.235446     5.935742
Si    17.487840     4.428404    56.241605
Si    29.555713     3.538047    45.499376
Si    22.817883    32.817082    15.715509
Si    38.148728    20.463688    14.510285
Si     2.984232    56.515911     4.323609
Si    48.695750    17.085753    18.815920
Si     3.364501    56.014749    29.924938
Si    48.290194    21.203869    33.517225
Si    51.678230     0.167283    48.128173
Si    40.498771    13.626550    48.416193
Si    49.022050    21.049267    15.812609
Si    48.004823    34.956796    18.811606
Si    35.899537    23.469294    11.988464
Si     1.108520    24.030104    31.307067
Si    21.924406    41.562336    40.055441
Si    43.277354    32.433520    19.414931
Si     0.473472    15.206101    25.016075
Si    34.457387    28.910201     3.810958
Si     9.629762    38.581892    44.524443
Si    25.590004     2.120544    31.117062
Si    22.981972     9.070075    36.885943
Si    31.359215    31.117824    48.221866
Si    50.481884    29.843422    42.667813
Si    14.659502    34.883619    43.837294
Si    36.869074    36.388203    23.232825
Si    21.855122    40.134462    16.361922
Si    14.027004    54.147225    28.221954
Si    14.159972    56.161640    30.593338
Si    26.917320    22.224271    44.017436
Si    28.837931    44.682042    28.553880
Si    29.086034    30.380525    18.272389
Si    50.033249    38.042182    41.788631
Si    42.080450     3.522340     6.727678
Si    54.250334    28.622328    19.032551
Si    53.649823    32.842485    16.335851
Si    17.135183    23.758753    53.026998
Si    39.229750    32.380839     4.444116
Si    17.800346    27.823417    33.428511
Si    12.156069    13.903421    54.314560
Si     9.762159    29.229890    45.715418
Si    25.200090    17.210980    12.313973
Si    33.683755    32.151576     0.519873
Si    12.082320    46.983827    23.879271
Si    38.809772     5.443580    55.388413
Si    48.800948     6.496976    11.490283
Si    35.934309    27.810037    49.231992
Si     9.387785    40.256921    42.103537
Si    34.262379     0.815424    34.627380
Si    15.112525    27.756524    45.878273
Si    56.417531    27.897187     6.988161
Si    43.985259     7.752698    54.866172
Si    18.259254    15.373073    49.899928
Si    45.591274    26.543284    29.452202
Si    53.117358    44.662920    55.645166
Si    11.097593    41.440684    14.668728
Si    50.379900     7.568211    15.261956
Si    16.350865    17.258855    26.131113
Si    45.382049    45.605409    40.132353
Si    31.168326    47.588879     2.858444
Si    15.506951     1.952899     3.692826
Si     4.529544    43.358320    43.099946
Si    54.206072    15.137579    23.505828
Si    26.665828    34.598629     5.441322
Si    51.648125    33.636388    33.518165
Si    21.065449    43.974417    20.685715
Si    30.416293    13.802092    56.062652
Si    13.679433    25.338620    50.888139
Si     1.663592    15.748056    18.299443
Si    30.731225    25.113734    22.803836
Si     2.955768    31.032260    38.542148
Si    33.325509    48.170922    13.117461
Si    12.623393    22.987953    10.465649
Si    48.439295    20.095877     2.869758
Si    31.792335    15.048029    15.155545
Si    39.739358    29.844077    34.893016
Si    25.251850    49.346321    48.814068
Si    39.606327    41.838780    51.510602
Si    32.882606     7.151059    31.760750
Si    18.355115     8.390183    12.838602
Si    56.376793    26.601037    38.122010
Si    28.865318    32.594333    29.187090
Si     8.507873     0.933149     3.444176
Si    34.943960     2.561538    46.476940
Si    14.412623    29.482961    50.955740
Si    30.120523    44.640456    33.128060
Si    36.245020    49.066635    13.084193
Si    34.472049    13.360630    19.614002
Si    23.155767    10.503469     8.212954
Si    56.244145    13.858978    30.693645
Si    28.322911     1.183028    56.049992
Si    42.052805    26.798280    55.929840
Si    21.189518    54.413476    52.096935
Si    26.430841    46.527726     8.189909
Si    48.514173    32.372913    14.274586
Si    32.880019    34.704376    15.464584
Si    24.264288    37.142225    25.332120
Si     3.231479    38.904950    24.434578
Si    36.019455    12.818468    42.503380
Si    47.995883    47.297275    43.696550
Si    20.685307     6.663751    52.014881
Si    32.722753    14.368191    51.031435
Si    13.874348    46.477418    29.400716
Si    50.028412    38.506235    46.625633
Si     0.435235    23.992958    48.246079
Si    46.683378    48.566724    27.452923
Si    49.817815    52.912326     9.886260
Si    31.340601    44.944481    19.854069
Si     7.093715     7.932695    22.987758
Si     9.247772    19.160389    26.433584
Si     5.137740     0.226637    19.390943
Si    35.213588    51.650492    28.848081
Si    45.009221    24.426265    43.828343
Si    35.058990    54.353761     2.700853
Si    54.410974    16.720705    11.158729
Si    47.784183    52.725005    48.404361
Si    31.374024    53.907316    11.196584
Si    43.749360    32.754516    30.445410
Si    53.900454    27.107620     1.750139
Si    22.728054    34.482801    25.091173
Si    42.055305    19.576578    52.655141
Si    33.294272    17.323042    50.277340
Si    56.541348     2.013347    19.148158
Si    14.760977    17.185396    18.573764
Si    17.695117    30.151016    35.274338
Si    22.614857    39.136155    37.984853
Si    14.852486    48.237591    12.134957
Si    11.815883    46.217294    32.373197
Si    29.423549    28.405805    31.374506
Si    32.716623     7.308235     9.177479
Si    22.334958     2.372526    51.498169
Si    17.381734    18.729701    18.811088
Si    28.931645    46.508131    50.121537
Si     0.322986    53.332260    39.439906
Si    46.413447    33.153210     9.306972
Si     4.215262    44.043962     6.992726
Si    33.171680     3.653160    15.371851
Si    12.467655    41.488589     5.356934
Si    33.992304    34.648304    18.116513
Si     3.230144    19.301713    30.353314
Si    21.275466     7.880617    18.296878
Si    17.824570     3.280198    45.635128
Si    33.924742    21.143050     4.884692
Si     8.552198    56.327592     9.182985
Si    10.814996    50.759960    33.690989
Si    45.977914    16.666066    36.817276
Si    56.046197    39.815896    52.111342
Si    20.905958    38.931239    44.675437
Si     2.618917    24.597776    53.842015
Si    10.717470    31.001824    48.072820
Si    36.937757    55.713541    43.099855
Si    15.059729     8.859004    29.676803
Si    16.375933    42.806645    39.858789
Si    39.822915    28.568143     0.287242
Si    16.933794    52.939349    19.911141
Si    22.263100    12.375900    39.077387
Si    55.312959    47.746566    45.087896
Si    54.899205    25.331542    22.481700
Si     3.050734    53.116931    48.741847
Si    47.083041     9.955562    51.624743
Si    51.829078    35.411960     4.204004
Si    38.240899    16.309389    23.941848
Si    23.934635    16.069819     2.798074
Si    14.366800    36.805921    31.437884
Si    48.144262    15.912558    12.036401
Si    28.427812    19.321775    23.221501
Si    25.254189    53.354384    55.194652
Si     4.913808    49.774708    15.175327
Si    12.689794    44.444666     5.063283
Si    45.096204     2.956915     6.393186
Si    13.225711     9.977873    10.559302
Si    39.498830    33.263999    42.496088
Si    20.109839    38.493324    47.685636
Si    44.327499    47.221364    17.586940
Si    21.488139     9.746905    40.537586
Si    37.087369    17.064523     6.381600
Si    37.666498    52.093436    38.611156
Si    15.971229     9.612002    26.708875
Si    31.232194    23.185262    39.340342
Si    51.470317    46.125963    47.311891
Si    28.385325     6.031596    33.055891
Si    27.600675    17.858065    46.440591
Si    41.836061    14.202053    17.384119
Si    34.198480    45.854614    52.664681
Si    19.649971    24.437462     4.024247
Si    25.859870    47.225756    33.314532
Si    24.680567    13.741666    37.947693
Si    51.384848    54.873546    14.273252
Si     0.163074    26.179087    41.157843
Si    41.722451     7.809634    17.566646
Si    28.662982    28.998942    37.147742
Si    42.385833    56.454267     3.365906
Si     0.871702    13.082484     5.775544
Si    51.058722    25.113158    13.292125
Si    16.827733     1.007046    50.189374
Si    42.400294    21.560064     0.314641
Si    36.350614    42.147305    26.144020
Si    11.893681    38.461197     8.057189
Si     7.764440    38.264338     4.291591
Si    29.594936     5.910060     7.227685
Si    28.257243    48.998535    33.663618
Si    44.627317    28.564319    35.774216
Si    22.287993     3.224023    18.817993
Si    12.092149    27.319388    24.991524
Si    24.877239    35.310953    50.706574
Si    27.188940    35.820148    52.550586
Si    38.948074    37.404455     6.579160
Si    28.471708    56.140869    52.169668
Si    31.266032    20.250331     3.390693
Si    49.496410    32.022108    30.089204
Si    43.131694    34.636745    27.881875
Si    31.737839     9.349229     0.682123
Si    49.124753    39.875707    22.343001
Si    10.998845    16.380530    51.287600
Si    29.423117    43.338625    39.762603
Si     7.262954    41.389234    22.268679
Si     3.808066    19.160526    54.456856
Si     6.398179    23.707683     8.358585
Si    13.366195    16.746448    26.263452
Si    41.144845    15.672368    24.821422
Si    55.045588    28.359855    29.041262
Si    27.492474    26.633061    44.920965
Si    28.531220    46.788364    26.294610
Si    50.575912     0.681128     8.126654
Si    28.283459    23.685726    51.383127
Si    13.933127    52.846940    18.913299
Si    27.033413    14.917045     8.167741
Si    17.933470    48.509346     7.221652
Si    16.000803    14.553582    34.903092
Si    29.177276    10.453005    15.411214
Si    42.515920    33.042367     0.498383
Si     6.232179    18.958121    17.307847
Si    14.548292     3.411600    39.164447
Si    27.721493    11.173327    19.802901
Si    23.448499     1.638277    11.714031
Si    17.767740    33.323887    50.789156
Si     3.224364    25.693520    32.625226
Si    54.572967    21.646677    51.631908
Si    24.364495    33.481216    32.557399
Si    12.644181    51.680092     2.466599
Si    56.012258    29.268118    26.292123
Si     3.692212    10.456220     8.864712
Si    31.600773    10.153157    41.764308
Si    53.239976    14.912970    50.192496
Si    17.629818    23.354682    27.166563
Si    44.814840    23.704200    14.210457
Si     5.295610    21.083750    42.681694
Si    15.909682    33.810154    41.327673
Si    36.872770    41.511008    34.156798
Si    47.961477    37.541865    29.855945
Si    43.409811    27.203525    51.337454
Si    23.798131     8.992824    10.951729
Si     1.735093     9.015485    28.961545
Si    36.972750    35.718977     2.510945
Si    39.718445    56.189053    31.173380
Si    40.950709    27.516932    45.220151
Si    35.287420     5.011270    29.643630
Si    50.993167    14.152897    35.493961
Si    35.343900     6.446576    27.005456
Si    39.232319    48.567031    44.682820
Si    32.160491    17.466144    35.994306
Si     3.657692    27.675014    49.291708
Si    34.075809    32.461187    22.504237
Si    30.940519    14.506148    41.804503
Si    49.078795    28.669987    10.679806
Si     2.097633    37.779378    21.352852
Si     1.648596    30.245891     2.509274
Si     5.439109     6.426092    39.402588
Si    56.470054    18.851633    11.270208
Si    17.505394    44.112025    46.564771
Si    19.825580    21.277649    27.568187
Si    39.949572    14.597732     3.137428
Si     1.544035    44.655566    47.591959
Si    54.011416     0.066663    14.452554
Si    36.751038    42.521087    42.514147
Si    21.400434    56.020069    46.962969
Si    52.888332     3.481274    34.141221
Si     8.288225    16.405997    40.786286
Si    12.165025    32.734469    24.759575
Si    14.726111    45.732356    46.427002
Si    20.566168     6.350231    22.408241
Si    43.357851    48.860284    43.104767
Si    32.621270     3.217556    25.870274
Si    13.265898    25.882296    27.492218
Si    44.002840    44.493639    45.407686
Si    47.167096    53.861104    28.587773
Si    16.914608    47.797077    25.477880
Si    14.791161    51.289652    29.487868
Si    32.759674    50.533761    17.960191
Si    32.467538    20.392603    43.533037
Si     9.061538    34.047981    51.027788
Si    35.424618    54.594126    27.833794
Si    31.564048    48.072593    49.413652
Si    32.189818    25.257921    34.797428
Si    29.599535    18.464307     5.480923
Si    34.834272    50.304970    31.612751
Si    51.866845    28.570689     9.436390
Si    20.797607    55.215746    31.546765
Si    33.527827     0.078848    37.399131
Si     5.377206    37.185423    24.871337
Si    34.622479    54.350228    24.731334
Si    35.760361    19.270870    10.335833
Si    34.066311    25.373024    49.982767
Si     7.087333    40.368245    31.450107
Si    35.708173    47.689153    30.055961
Si    15.921372    51.862321    15.479663
Si     6.460459     9.453834    39.832356
Si    25.922306    54.577424    12.518594
Si    40.433920    12.144464    53.299883
Si    40.189143    20.403617    38.127339
Si     4.235639    19.968885    12.053435
Si    31.038489    27.547852    42.241709
Si    14.842451    51.186095    45.982502
Si    18.147162    15.972698    44.646660
Si    22.084200    19.558331     0.631488
Si    21.990833    15.319830    47.585072
Si     2.022660    16.970219    23.120760
Si    51.507451     6.232657    45.252955
Si    17.995931     1.291103    15.824360
Si     6.326737    46.307756    21.010400
Si    36.983613    14.942259    11.217531
Si    19.326784    31.402899    18.962064
Si     3.336135    21.325362    40.320126
Si    15.108106    45.206627     6.549387
Si    38.953914    16.537343    29.342748
Si    29.819477     0.989838    19.722657
Si    54.801032    47.138797    54.729294
Si     2.820878     8.270209     4.831061
Si    18.874656    47.864967    40.487099
Si    42.057509    45.165879     8.348124
Si    37.174586    48.967403    16.109072
Si    10.854142    20.680540    49.119789
Si     3.970136     1.972838     0.746608
Si    39.906037     3.720619    46.531512
Si    49.197396     0.640177    34.120891
Si    51.507188     4.160657    36.833272
Si    11.439601    42.285845    10.122869
Si    48.290858    38.729043    14.850236
Si    40.810035    35.685206    12.584789
Si    19.941440    29.535590     1.051153
Si    32.571149    30.230877    45.482022
Si    21.774825    35.308932    11.250477
Si     7.311037    33.454704    18.701071
Si    48.780160    11.085833    11.094323
Si    31.664588    29.318605    50.366785
Si    14.027371    46.716358    36.318693
Si    18.359945    29.523587    55.017157
Si    15.041421    35.556840    28.772658
Si    55.243554    17.117618    34.035914
Si     6.162678    36.324108    53.931208
Si    37.387171    11.868888    10.376702
Si    13.107485     7.014353    11.288014
Si    42.249817     3.581524    31.085032
Si    44.261872    49.215811    35.623484
Si     9.864251     8.516551     6.456070
Si     6.466373    28.191256     2.270334
Si    33.646087    11.840052    49.283291
Si    21.575313    45.125271     5.790000
Si     1.279649    31.647064    54.173831
Si    43.871743    52.067722    16.051315
Si    40.968077     8.159508    46.474682
Si    32.868543    23.388651    21.543783
Si    46.355354    40.338475    34.777373
Si    35.187903    28.423177    13.536748
Si     0.457789    51.850167    16.897550
Si    25.396316    26.524260    17.675922
Si     5.958466    10.461746    10.968450
Si    23.481568     3.031764     5.608542
Si    46.310741     5.091025    23.287544
Si    41.759814    13.489881    22.606987
Si    40.776420    11.980954    28.423922
Si    33.955212    15.393068    45.224851
Si     0.461574    41.605919    27.678262
Si    39.736743    32.888223    34.671944
Si    24.733709     1.103312    42.782438
Si    19.145618    19.635887    32.493232
Si    36.320475    33.545688    13.309082
Si    38.800055    48.465798    26.000794
Si    30.722029    43.467626    14.890607
Si    28.043337     1.491921    33.178388
Si    17.387813    25.831223    45.378632
Si     7.026758    36.411949    33.413008
Si    31.001037    31.672675    27.013156
Si     9.148458    54.527775     4.404591
Si    46.111073    24.289320    27.319724
Si    21.373420    29.045057    19.386192
Si    41.965284    45.349337    26.410809
Si    40.981681    53.361659    41.704296
Si     0.505796    55.738639    41.223550
Si    23.722627    51.072938    32.509947
Si     1.323407    36.876137    12.549022
Si    25.702974    56.034299    47.613600
Si     6.354680    50.667524    51.957941
Si    31.261906    41.102108    20.097647
Si    44.603628    28.619506    48.659075
Si    40.633279     8.394999    51.228366
Si    21.347630    54.631607     6.304585
Si    25.230753    18.250712    42.852889
Si    43.034395    16.148313     9.765915
Si     2.958567     4.400635    53.868648
Si    13.589789    19.445235    53.239069
Si    50.945870    35.892216    18.613166
Si    49.827702     2.972774    50.746873
Si     1.468936    20.463851    13.314391
Si    47.018083    43.088299    52.969745
Si    16.059627    18.283005    41.029855
Si    47.629834    29.118624    53.859641
Si    53.798933    43.806731    21.040031
Si    30.549709    21.915703    50.201602
Si     0.018509    36.090001    46.483404
Si     0.929372    31.651053    40.893133
Si    36.077286    22.395706    18.831234
Si    10.195169    53.917064    31.252984
Si    22.039690    17.172409    43.815140
Si    49.694751    15.869125    14.652123
Si    23.925786    50.828083    12.798134
Si    29.001038    34.893625    54.940724
Si     0.899001    41.434963     1.779833
Si    15.723735    42.253207    31.750087
Si    47.718353     1.638958    18.553467
Si    13.138495    35.566953    36.791071
Si    40.923015    25.139067    21.186556
Si    41.418390    47.275647    21.932746
Si    40.509854    28.417152     3.168205
Si    37.467652    50.120940    46.281786
Si    54.409142    14.498965    20.363063
Si    54.471018    19.976380     6.237002
Si    43.692323     7.885378    25.552081
Si     6.185868    28.061364    34.905929
Si    12.367309    33.076500    20.277581
Si    27.509312    16.841808    36.750524
Si     0.668327    32.333695    20.922809
Si     6.783658    44.830421     5.452047
Si    24.822358    10.798945    35.197110
Si     1.071804    11.705990    52.143700
Si    11.345270    52.021238    11.553027
Si    15.400253    49.733235    43.502038
Si    53.992901    46.631759    14.999656
Si    29.246292    11.039192    56.402237
Si     1.896146    15.900136     5.146434
Si    37.119558    46.194090     3.355496
Si    32.249195    37.874282     4.376158
Si    16.058701    10.526211    42.208804
Si     6.462588    45.601279    24.078583
Si    42.973554     0.422281    54.594606
Si    54.173014    56.569846    31.383927
Si    27.865542    17.711471    51.906730
Si    10.787057    39.417935    34.604188
Si    27.620981    37.394880    37.203722
Si    51.572932     4.784122    29.222740
Si    19.747852    38.741629     2.772911
Si    20.557641    16.360052     5.549730
Si    30.492028    51.917519    22.737823
Si    41.482982     4.140086    43.893573
Si    15.404680    33.984174    46.735035
Si    10.218104    54.890795    36.560116
Si    41.103812     8.263775    11.320541
Si    48.824257    13.990568    33.151348
Si    29.220656    28.557893    20.511534
Si    56.175181     5.187595    22.931294
Si    49.161273    18.856384    21.346125
Si     7.162441    27.209860    56.211281
Si    30.382194    34.500598     2.940153
Si    56.537141    44.636584    27.264663
Si    45.309424    52.399389    44.083237
Si    39.636989    11.649423    45.142862
Si    12.391877     6.535636    54.386344
Si    34.133110    36.028605    24.834536
Si    40.609038    35.353376    32.898833
Si    51.621407    20.064113    23.110695
Si    10.195660    43.448538    53.155144
Si    33.307732    32.626282    36.980628
Si    31.453352     5.893617    24.539828
Si    46.649240    35.645051    31.617262
Si    37.762227    43.611375    50.116040
Si    10.701503     8.628892    50.749948
Si    27.501491    50.863302    19.508428
Si    39.492623    54.332653    39.090910
Si    18.907007    26.741339    22.898410
Si    43.476081    39.458392    30.288183
Si    19.704734    10.552079     2.666089
Si    24.762674    21.911740    10.288650
Si    30.346526    53.724327    32.539928
Si    24.940445    32.021237     9.046721
Si    45.374547    24.322481    40.910431
Si    18.145174    19.037156    14.379615
Si    26.932944    28.207237    29.680755
Si    36.670676    50.528517    41.074534
Si    54.060521    17.673217    45.167154
Si    49.551028    48.444768    48.096993
Si    16.941506    22.991185    21.634514
Si    31.452148    27.802172    24.443178
Si    55.348513    45.456235    52.443274
Si    26.025700    30.936129    21.716669
Si    44.182907    41.810587    49.077253
Si    17.153283     7.182916     5.640112
Si    39.264831    23.368723    44.578683
Si     5.775945    26.248537    23.574691
Si     5.957769     2.981925    28.508781
Si    48.271560    18.090865    15.950819
Si    32.420756    43.129339    55.707491
Si    20.906483    41.292052     3.967850
Si    48.216713    55.632770    52.272337
Si    42.784453    48.572728    52.944510
Si     6.566397    29.209408    24.399850
Si     8.746567     5.750794    44.825528
Si    22.654908     9.975997    43.428811
Si     8.299485    52.430927    24.301875
Si    13.963768    21.675282    40.406182
Si    47.315735    24.777212    50.369488
Si    17.535364    37.245318    38.499931
Si    42.809543    34.503694     7.338928
Si    18.431759    37.750943    22.545802
Si    21.280828    49.588659    33.626972
Si    52.973938    35.409190     1.226898
Si    29.403231    55.145165    54.921825
Si    14.791789    55.824807    14.238492
Si     4.684058    44.986511    33.117871
Si     7.484469    11.298669     4.022007
Si    12.096190    43.276127    39.223353
Si    13.252744    51.127205    32.045475
Si    13.303871    24.490384    39.073172
Si    53.960310    35.387083    18.024557
Si     8.234765    25.975623    18.693321
Si     3.849627    39.509588    33.749519
Si     5.860931     6.215064     1.599485
Si    33.376974    17.588669     8.941545
Si    38.724884    16.561878    13.214074
Si    19.647692     4.627495     8.823614
Si    20.494293    38.570245     7.422903
Si    13.086949    55.469016    35.742795
Si    56.406771    16.751215    46.791964
Si    53.199732    11.972837    13.690939
Si     8.356128     3.734470    22.110321
Si    30.388667     0.501436    22.547127
Si    22.615840    13.159512    16.608110
Si    47.354236    12.049276     2.874750
Si    48.499919    55.254105    18.439446
Si    12.663115    36.680622    17.676096
Si    26.917967    24.621918     7.721275
Si    34.987313     7.851615    15.676902
Si    25.013536     9.202648    30.032037
Si    32.373556    54.836815    55.984269
Si    41.771576    31.224954     3.107321
Si    41.747610    41.195094    18.352846
Si    40.136262    21.817926    28.918765
Si    10.506601    26.885942    12.932707
Si    45.369708    17.042600    48.635437
Si    52.727195    55.267620    23.929408
Si    16.189059    50.909725    12.480942
Si    21.845956    51.039391    38.000875
Si    39.000200    53.298220    31.005471
Si    53.186921    34.917154    28.607978
Si     9.004341    50.463323    39.848650
Si    10.694929     2.705710    41.682551
Si    40.320492    14.502069    45.444215
Si    14.657978    35.468454    10.395073
Si    24.556356    35.280319    44.026360
Si    10.743098    48.727704    45.279162
Si    24.408831    36.916123    17.895307
Si    11.172442    28.794180    20.755391
Si    42.229709    51.513322     4.375385
Si    37.623945     6.057500    52.679657
Si    40.362815    24.454266    17.279812
Si    54.325885    52.155505    13.304211
Si     0.593451    20.982510    30.620953
Si     7.131661    10.284391    49.368270
Si    23.438241     1.318498    25.036494
Si    32.999898    24.974952    29.869454
Si     4.131301    35.150512    33.582923
Si     9.747279    35.104627    10.983978
Si    11.475802     5.611238     9.112960
Si     8.671016    21.918748     8.248766
Si    13.539092    10.559262    47.029917
Si    44.245190     0.406827     0.810592
Si    12.975478    31.007514    41.723146
Si    40.637231     4.961604    13.969891
Si    37.041454    55.197844    32.050880
Si    20.002158    21.903472     5.547678
Si    38.597003    53.065788    14.451822
Si    13.621542    53.869385    16.116173
Si    31.644897    26.683702    48.746595
Si    23.109025    18.645397    14.165613
Si    42.106493    29.028536    16.968099
Si    42.996607    46.657323    10.721407
Si    47.707183    45.550546    29.839409
Si     0.747130     6.387171    53.104375
Si    10.979231    39.034423    29.027126
Si    17.990671    10.203912    15.207621
Si     3.811740     6.490071    36.810445
Si    40.677955    12.683075    13.276731
Si    19.790324    30.993094    26.910659
Si     3.902348    44.137991    25.065478
Si     1.036953    31.840081    12.546632
Si    10.963728    47.056899    29.488733
Si    27.032488    50.482965    46.534301
Si     4.527890    52.142375    16.805080
Si    50.391066    21.010930     4.958068
Si    38.217579    54.408231    47.548906
Si    49.101013     5.750087    27.559415
Si    36.968018    25.616749    26.986184
Si    46.243049    53.632144    53.553815
Si    11.925541    19.037433    25.038115
Si    16.622035    20.812695     8.989544
Si     1.007800    49.356303    26.266429
Si     8.181286     2.277509     7.490766
Si    37.138149    13.698256     2.637128
Si    35.378622    13.063272    46.932019
Si    31.708704    34.476610    42.334580
Si    49.650450    16.771581     6.767305
Si    51.510780    22.110040    52.711912
Si    49.561832    31.873941    26.923559
Si    45.687389    54.600732    19.613858
Si     6.882523    53.936855     9.721654
Si     0.642952     2.125151    41.454608
Si    29.956499    53.335528    35.482279
Si    53.113325     6.771895    55.506685
Si    38.740715     2.094483    48.838096
Si    36.800387    32.260349    23.631734
Si    43.876086    32.008495     5.523744
Si    18.028040    52.967101    49.666858
Si    53.691523    39.881089    40.357975
Si    28.995469    37.194659    45.008920
Si    18.678888    56.019251     7.288248
Si     3.610744    37.784807    27.132135
Si    42.091361    41.677197    35.979398
Si    55.726242    33.284851    49.996430
Si     6.793715    34.649305    56.357524
Si    29.774125    15.219792    27.277802
Si    40.726600     2.122825    41.482652
Si    35.645879    28.522680    21.538197
Si     1.797593    50.439980    49.297563
Si    40.639998    16.711844    40.674541
Si    20.003548    47.021954    17.295765
Si    53.373722    33.311534    48.152747
Si    53.365769    28.570554    50.478216
Si    21.716838    21.466647    42.679105
Si    52.682473    15.456595    33.188199
Si    44.857499    43.228499    23.016231
Si    30.987212    21.965026    14.070616
Si     9.842547    33.591961    38.602441
Si    45.738126    13.284539    14.380696
Si     4.040831    33.684590    38.755524
Si     6.160927    45.820295    53.023314
Si    55.876438    16.208620     8.515494
Si    25.108377    13.681855    54.911427
Si    37.998553    30.383893    27.784615
Si     0.116744    18.595009    21.196060
Si    13.153228     2.712726    20.426301
Si    20.148877    12.337798    11.984158
Si    21.516367    26.192572    53.414336
Si    42.238108    19.309724    46.982109
Si    12.350191    41.155420    52.604947
Si    52.175366    26.712191    22.936131
Si    40.915499    42.146348    38.730319
Si    54.754875    29.035386    45.898634
Si    49.258797    39.899548    12.220093
Si    51.257169    48.730411     6.719681
Si    10.157466    19.355097    43.688394
Si    11.472963     1.064666    52.964607
Si     3.909286    52.040732     3.872161
Si     1.453738    31.127437    34.430177
Si    31.982334    10.654385    53.443465
Si    17.219548    47.197069    43.221182
Si    37.492424    14.645916    48.723393
Si    42.159025    38.484029    19.496319
Si     3.695683    18.163514    18.923460
Si    16.067036     1.806522    20.682066
Si    30.077604    23.770908    29.423357
Si    24.465235    21.180114    13.243521
Si    29.389132    38.993533     4.800156
Si    55.633384     7.543173    27.935436
Si     8.246883    29.809639    52.210415
Si    48.014078    34.377449    52.793677
Si    13.057375     5.588914    26.470599
Si    24.331648    23.852782    14.999847
Si     1.754743    45.680164    12.947182
Si    41.525421    24.784534     8.449922
Si    32.265314    44.148431    45.241345
Si    34.521480    40.150405    31.097303
Si    54.079173    29.086114    23.974397
Si    55.500942    42.561840    56.202858
Si    35.112377    20.111144    47.271833
Si    46.455547    31.413167    30.009208
Si    41.215569    51.761487     0.595633
Si    52.566996    25.634110    10.420034
Si    36.245752     6.835248    34.584307
Si     7.369492     9.050570    53.221257
Si    15.175856    54.633432    23.120352
Si     6.860215     0.410974    16.814705
Si    53.134002    47.069109     2.750078
Si    40.309804    14.596079    19.932155
Si     7.011386    55.858445    54.800704
Si     7.689852    30.422063    27.054622
Si    25.633491     9.390688    18.430435
Si     5.316405    31.849199    53.539983
Si    39.836908    15.162583    53.036797
Si     2.336938    47.592314    52.011889
Si    33.726837    41.845975    38.196132
Si    11.101334    51.912660    23.035181
Si    20.697142    40.068998    27.895248
Si    48.895346    39.413808     5.029277
Si     3.248352    33.802919    55.035170
Si    51.550216    11.091894    36.078804
Si    19.817262    34.118607    45.824374
Si    52.551107     1.211836    50.867173
Si    44.943236    39.359494    25.476033
Si    10.305988    37.975091    10.470690
Si    18.744692    15.170367    41.522641
Si    33.910811    30.592818    30.649097
Si    49.521742    29.241958     0.952943
Si    27.065670    53.833697    35.933417
Si    48.801536    28.966248    37.396466
Si    23.138294    26.746022     9.755230
Si    31.759478    14.343939    38.947892
Si    27.057834    30.992053    13.549116
Si    34.812337    43.319028    23.607377
Si    29.372974    26.704322    28.906215
Si    49.664906    11.231983     4.794839
Si     3.942567     8.028181    30.657311
Si    42.259949    32.370385    39.217398
Si    32.432910    46.751320     8.451076
Si    18.392670    35.542032    41.005760
Si    45.073894    52.202338     3.505006
Si    23.834724    37.796049    22.402383
Si    43.005241    28.815725    53.966626
Si    26.972545    19.501616    13.460503
Si    41.922740    54.427767    23.868103
Si    12.430924    25.115714    55.734855
Si     3.160793    25.058149    19.865024
Si     3.977478    31.013719    23.734136
Si     0.311519    48.458246    56.520661
Si    49.368112    46.647559    52.813956
Si    40.179840    30.052952    54.278911
Si    43.182882     6.175969    40.249026
Si    52.415999    10.706535    53.132055
Si    40.555214     1.592114    53.124388
Si    14.630818    48.707990    47.651458
Si    16.440016    10.051181    32.370321
Si    10.009641    14.502611    26.802419
Si    29.500913    20.974367     9.630842
Si     2.081627    23.048974     5.597974
Si    20.414013    15.603679    30.544766
Si    49.631886     6.304335    41.716472
Si    41.356966    25.222561     3.432301
Si    23.114554    15.336112    35.779252
Si     6.896569     5.873710     4.418166
Si    33.064153    38.628733    53.211744
Si    11.380199    52.196861    49.246699
Si    48.197929     9.420382    24.948701
Si    24.576405    21.098362    37.365446
Si    44.193030    10.661307    53.900424
Si    14.625912    16.489267    11.675471
Si     6.753802    36.937224    48.391845
Si    33.250725    17.704045    47.197644
Si    16.456032    38.033633    27.914569
Si    47.762264    23.523756     8.756897
Si    21.777180    24.137240    47.214215
Si    25.055199    12.764629     7.234153
Si     3.308237     4.650730    24.646610
Si     0.356472    23.254632    10.009233
Si    22.058205    33.918195    50.740305
Si     9.146578    29.593194    56.127527
Si    53.615196    43.089738    24.000648
Si    38.563394    22.038322    48.180888
Si    27.415708    42.656327    10.813989
Si    24.126199    44.690686    50.027024
Si    26.987174    27.773283    47.706057
Si    46.287005    41.168757    47.090729
Si    19.662147    38.419398    36.733725
Si    52.873388     2.884985    47.405794
Si    22.921692    53.830470    25.741719
Si     1.300854     9.560588    12.764104
Si     1.504871    17.031659    38.257017
Si    27.505938    51.901162    26.899135
Si    40.524580    16.835518    15.927133
Si    42.700877    49.163720    38.162665
Si     3.869375    23.698235     3.182492
Si    51.321119    52.711520    16.628674
Si    18.673106    10.655531    27.520951
Si    27.549214    28.987836    56.490040
Si    34.852937    16.922194    30.559315
Si    41.005937    32.955717    14.385734
Si    15.645588    47.968416     5.313732
Si    52.704173    32.255287    38.532104
Si    17.876378     0.179400     4.388659
Si    26.888648    37.169398    21.557261
Si    12.018548     1.132690    49.841958
Si    33.091319     2.426609    38.990006
Si    39.892734    17.138729    55.606044
Si    36.586419    30.592137    32.251449
Si    55.289464    46.227467    19.806144
Si    51.066658    42.238526    12.979217
Si     1.262331    40.568741    10.284184
Si    16.462437    43.851581     4.017840
Si    11.313125    12.869883    47.535564
Si    36.603790    34.742907    16.269021
Si     6.302241    19.960978    14.378610
Si     4.272315    27.389496     4.163708
Si    36.883497    33.374960    33.723306
Si    11.937204    18.166783    18.464642
Si     7.830388    39.424499    10.642833
Si    24.824750    12.563110    14.401784
Si     7.359921    24.154916    38.098714
Si    36.224150    29.901313    16.059269
Si    23.951736    55.552195    45.083818
Si    46.306645    21.587947    12.751089
Si    41.388355    26.914448    19.008576
Si     9.831871    35.046420    32.981984
Si    30.222451    39.145610    37.567098
Si    13.145456    13.898812    35.405934
Si    47.533089    36.246926    27.174233
Si    29.801391    53.044724    49.301081
Si     4.556649    18.859444    44.637786
Si     2.905774    35.892888    23.752145
Si     4.224992    26.750748    28.093987
Si    40.764136    55.266454     7.611068
Si    21.193893    40.953959    30.916228
Si    55.042558    41.222021    19.903127
Si    21.592738    11.600922    26.815331
Si    49.247751    52.788989     6.959592
Si    51.775631    55.611960    45.283751
Si    43.654797    31.172374    13.764780
Si    44.076333    36.607650    54.722538
Si    39.519621    43.078892    46.330748
Si    33.866178    54.414698    20.281832
Si    54.586536     9.400725    56.468606
Si    53.367870    16.410789    39.315606
Si    36.391561    32.381572    42.471120
Si     8.915250    20.617659    54.328459
Si    29.351189    25.048637    43.011263
Si     1.691178    15.361449    44.669189
Si    25.484345    42.171429    27.152935
Si    43.290174     0.215136    27.227380
Si     4.312664    48.897788    48.352803
Si    20.419432    17.445374    13.167874
Si     2.532643    10.934318    19.160604
Si     8.446370     4.519986    42.281281
Si    14.060257    27.380792     9.208206
Si    56.292302    46.759802    24.967493
Si    36.462530    16.242876    33.592356
Si    52.677611    25.723503    50.494484
Si    15.444503    16.502254    43.539523
Si    10.080708    24.493256    42.285767
Si     7.432962    23.417534    23.805634
Si    43.481589    18.305407     3.380467
Si    29.108672    42.100371    42.415818
Si    36.009831     7.359701    31.630792
Si    51.215196    35.958761    55.441035
Si    17.311978     5.419388    12.689993
Si     8.699127    18.001009    13.681227
Si    18.547888     1.714159    35.097352
Si    42.157186    43.136222    41.555049
Si     4.897615    51.945823    13.055353
Si    40.724757     1.143102    13.851410
Si    51.334102    20.832944    33.808636
Si    39.883515    30.618651     8.341052
Si    23.222448    23.405886    53.317460
Si    14.165722    29.515374    24.668728
Si    16.089444    31.078881    42.311658
Si    17.892914    14.844878    37.268192
Si    21.771266    33.195662    27.979182
Si    11.039837    19.159802    35.263362
Si    48.430452    17.266111    28.620218
Si    31.067619    14.867652    24.498815
Si    25.455235     7.816250    55.915490
Si    51.400226    37.817846    11.342439
Si    43.438580    27.898855    27.761805
Si    24.061605    26.545910    38.629893
Si    16.910039    33.710501    11.907279
Si    25.367631    19.820237    45.340960
Si    31.188219    19.959323    26.726730
Si    23.269341    30.736694    29.146068
Si    48.303705    38.715883    37.760511
Si    13.842601    35.479879    39.815819
Si    32.777828    15.765803    20.360054
Si    21.660354    28.193553    22.477505
Si     5.192435    36.987079    45.769373
Si     4.079960    46.437602     2.475894
Si    16.377613    37.227677    44.254663
Si    11.018024    10.202754    24.300137
Si    38.656099     8.180555     5.813580
Si    30.581408    53.608302     6.687114
Si    23.969642    41.895179     8.974430
Si     8.143935    35.979891    25.075444
Si    23.776998    13.270375    33.580090
Si    21.139275    46.159894    54.438625
Si    15.567265     3.653601    33.174827
Si    16.173192    54.893630    25.981967
Si    33.307857    45.371427    42.548624
Si    18.778540    25.936593    42.568805
Si     8.849476    38.927816    49.565093
Si    24.247661    51.319048     9.655881
Si    37.679243    23.742911    29.319319
Si    48.313683    46.588715    40.533728
Si    25.559277    20.387465    34.549276
Si    36.320040    38.822968    46.086270
Si    27.863865    14.554001    52.031256
Si    30.530859    26.889287    13.077115
Si    25.441041    33.048445     1.445130
Si    47.445157    16.662317    22.571104
Si    47.566331    50.725598    54.108328
Si    44.310111    11.858325     9.805055
Si    43.325651    37.912453    27.721253
Si    35.667241     7.446872    12.568004
Si     4.567630     4.588106    34.671404
Si    16.613759    30.369936     4.120444
Si    19.011329    23.897465     1.131281
Si     2.291280     9.705405    22.124759
Si     3.169877    30.497008    48.600093
Si    27.722784    38.026912     9.362643
Si    17.072757    19.154864     0.917068
Si     8.955125    12.334209    13.409760
Si    38.780333     4.987538    49.921115
Si    51.110469    33.809277    25.231419
Si    13.719266    55.379719     5.449063
Si    48.949087    11.638062    31.112081
Si     7.342194    42.939042    52.173283
Si     7.397864    54.939180    22.660706
Si     2.113819     8.673274    40.506461
Si     3.335280     3.610402    27.365615
Si    53.455671    12.637286     8.600105
Si    22.221147    25.729020    34.786083
Si    53.422891    25.863403    38.108103
Si     3.319081    38.916517    14.068337
Si    32.788300    24.246394    26.626117
Si     9.182932     2.833302    46.048384
Si    14.837864     6.446508    46.006099
Si    49.444375    41.605136    53.616153
Si    56.259640     4.293132     5.616532
Si    10.735042    19.395803    52.038920
Si     1.389173    46.708456     3.580747
Si    34.470737    10.014414    38.278952
Si    32.429182    35.293705    29.254600
Si    32.574160     3.233664    44.731693
Si    15.811252    24.457070    37.113600
Si    19.378855     3.776298     1.991710
Si     3.604522    52.968697    29.583771
Si     9.685092    50.354093    13.630063
Si    50.807791    44.851520    40.060527
Si    31.938262    27.020180    27.357761
Si    54.376034    22.324464    15.433138
Si    54.871899    49.605546    52.768372
Si     6.978442    28.499434     6.424537
Si    12.342230    49.235909    10.831869
Si    21.723473    14.615476    40.917113
Si    42.927873    12.136879    15.298901
Si    28.592729    35.610591     7.704114
Si    10.900388    46.703075     5.736452
Si    28.688688    15.389122     1.198404
Si    30.497859     5.558111     2.671338
Si    30.247568    16.837071    38.212372
Si    23.649864    33.172384    22.176661
Si    45.798433    40.503183    43.925847
Si    45.137213    34.810092    25.626122
Si    43.852238    47.596776    14.550881
Si    23.948977     5.599272     1.216182
Si     8.435121    48.854365    28.383158
Si    47.901004    46.104605     3.814084
Si    54.186237    34.616079    42.431379
Si    47.743820     2.161110    23.190840
Si    15.179243    53.641568    37.393305
Si    49.040739     2.201525    36.904441
Si    36.415983    55.105682    35.102952
Si    47.324382    21.442423    20.904490
Si    34.982998    22.640616    30.289609
Si    19.935165    30.551907    13.628102
Si     8.050385    47.546867     6.389868
Si    54.912431     9.845215     8.588113
Si    43.559657     6.488233    10.969252
Si     4.650884    15.911738    45.668800
Si    36.269196    20.362530    26.221953
Si     1.394561     3.992605     1.236656
Si    50.371179    55.774767     3.028582
Si     3.530991    24.881924    11.688849
Si    34.774021    34.847970    41.944860
Si    32.090994     9.166324    20.239932
Si    33.078073    46.476701    15.526234
Si    21.757204    48.265507    45.961951
Si    31.756948    50.886313    32.472071
Si    27.199342    19.559039    40.950740
Si    33.988054    42.163547    49.905617
Si    47.068398    45.840566    17.176075
Si    10.840667    18.975561    11.680075
Si    56.445343    42.241751    31.981553
Si    50.422498    40.946376    26.389891
Si    44.864816    42.025567    56.241889
Si    28.213885     2.065672    24.055463
Si    25.397338    39.478473    41.805725
Si    11.985801    54.865235    53.718226
Si    21.946105     2.197188    14.417086
Si     8.335365    46.396926    48.655721
Si    33.514038    31.944444    19.479688
Si    38.662128    48.208723    29.073255
Si     7.163382    13.706373    41.837333
Si    51.689971    38.272218     5.549478
Si    36.299614    37.996350    12.423229
Si    34.051223    27.389863    41.590725
Si    45.593555     3.196377     0.244510
Si    35.280346     0.540487    23.874665
Si    17.780335    31.388293    24.692669
Si     7.363446    11.182503    15.902917
Si    29.953596    13.543803    49.828845
Si    53.323610    17.755480    30.078099
Si    27.156187    40.070064    20.464835
Si    23.945816     2.805372    56.387449
Si    18.643545     6.038791    44.244451
Si    13.269218    38.620422    39.642050
Si    28.256715    44.022865    19.752875
Si    31.229595    18.125002    24.085223
Si    10.338424     2.794318     5.415362
Si    39.146720     8.602009    37.732779
Si    25.524550    27.493629     7.969524
Si    36.645642     7.472344    45.107211
Si     0.544287    13.842417    10.204178
Si    29.519546    47.102214    55.355518
Si    38.417090    33.821740    53.765633
Si    56.085058    20.976192    27.704946
Si    11.685889     6.748960    14.047873
Si    28.773866    30.151152    47.154621
Si    42.062379    18.121908    38.259150
Si    47.789158    26.240886    20.915732
Si    41.037631    42.449152    29.152375
Si    24.057677    54.034797     7.904061
Si    56.383383    37.365066    17.285657
Si    32.220130    41.649446     1.793478
Si    20.512852     9.216143    53.900823
Si    40.979597    38.048563    14.589694
Si    17.812102    17.282187    30.885585
Si     4.516444    41.362073    12.821452
Si    22.257610    29.615672     4.554068
Si    26.999503    21.776471    22.334003
Si    29.844248    41.692078    34.237058
Si    21.782563    32.634512    12.736179
Si     3.865272     4.662899    41.163028
Si    45.198280    11.869265    46.913972
Si    52.031858    16.644179     2.777655
Si    48.543512    25.365403    34.208447
Si    30.382337    39.891918    53.885671
Si    51.205276    18.078651    32.239771
Si    46.023014    33.062241    23.265607
Si    48.170274    44.741265    50.683515
Si    48.858834    53.703293    37.025237
Si    45.875315    10.447739    41.508669
Si    18.529962    10.404054    40.173820
Si    19.093523     0.574470    45.034879
Si    31.488497    16.095092     1.641762
Si    32.207887     8.249132    34.605948
Si     2.153480    14.544750    40.001742
Si    48.415951    29.389716    13.579202
Si    47.041735    38.591774    45.968238
Si    30.256826    52.387354    52.332316
Si    48.162621    33.811817    44.448201
Si    26.639489    45.177091    36.792890
Si    42.103267    42.853060    55.247906
Si    39.889485    50.417778    15.691162
Si    34.035584    51.183890    47.548505
Si    44.893123    34.141966    53.138565
Si     4.277689    22.946582    51.811587
Si    31.011789     9.328659     5.102626
Si    43.192588    28.069300    14.329907
Si    44.042810    30.147043    25.921188
Si     7.875958    12.193337    27.237795
Si    55.360270     8.127182    13.812402
Si    37.636345    35.595374    20.267412
Si    13.416142     7.495935    41.959087
Si     2.877086    55.935899    36.429449
Si    42.842380    52.679992    45.954154
Si    42.426729    50.200136    14.007141
Si    26.869794    23.953592    17.022956
Si    36.979314    23.667400    36.097665
Si    37.650870    24.625046    46.941611
Si     3.669406    18.816219    33.394840
Si    54.763881    23.708669    27.001085
Si    14.571498    33.918450    50.979767
Si    37.931682    34.432413    25.289038
Si    50.126864    24.047306     1.702275
Si    32.016986    28.075299     0.361959
Si     7.820606    24.969581    54.385573
Si     4.486307     1.431003    10.938696
Si     9.260029    32.394802    20.927830
Si    10.498226    41.235318     7.547279
Si    49.252239    28.139818     5.457707
Si    42.982976     8.952925    41.455081
Si    19.494711    17.905629    16.783924
Si    23.346460    30.165906    17.152003
Si    26.794797    10.369073    51.338554
Si    24.802256    14.237109    51.924336
Si    36.599062    44.672204    13.905769
Si    50.304629    25.328614     4.600726
Si    23.945558    33.384127    35.425679
Si    40.791063     5.355712    22.897561
Si    45.999130    37.745850    35.839629
Si    34.393232    26.971217     9.371806
Si     6.897495     0.877963    26.398728
Si    34.813974    47.426868     4.730157
Si    18.018548    18.902735    35.082976
Si     6.726431    44.228043    28.430917
Si    27.426259    13.788149     3.371937
Si    15.014369     4.537399    14.557471
Si    19.690290     9.143486     8.713149
Si    26.090062    19.501693    53.687296
Si     7.589488    14.829310    38.265000
Si    27.743331    13.383434    15.335191
Si     4.014080    12.253409    37.329767
Si    21.889400     8.070107     6.994670
Si    15.765570    27.022285    52.369966
Si    12.869038    23.096242    48.942144
Si    49.697128    38.097441    26.128555
Si    43.155690    52.192542    27.851547
Si    10.606119    54.109963    15.541230
Si    44.886302    14.647225    18.389667
Si    15.556656    33.704535    56.065454
Si    47.095687    11.342706    54.209476
Si     6.482449     1.314318    22.093182
Si     3.139760    38.717910    44.306479
Si     3.541067     3.404684    30.331585
Si    13.212497    29.731648     0.230477
Si    51.205272    31.131042     7.834071
Si    42.919368    53.205703    11.692488
Si    27.766087    27.986885    13.268036
Si     0.115533    55.931000    23.359556
Si     6.613607    20.774730     4.674371
Si    36.238444    37.953634    32.483419
Si    50.323435    39.334313    51.748884
Si     5.668013     8.121324    18.849451
Si    31.545844     4.409003    36.927682
Si    29.645613     6.315624    41.497897
Si    12.990042    40.704508    55.726269
Si    23.185370    44.253190    27.961934
Si    48.893083     1.633436    39.774101
Si    15.324272    18.420514    13.788548
O     24.619847    41.857459    52.618558
O     26.225928    23.873379    40.172897
O     51.234525    34.116345    21.338856
O     17.923012    41.746848    53.738455
O     15.886639    11.628558    12.260853
O     14.284667    13.526645     0.861675
O     45.749779    55.766095    20.753898
O      5.513192     9.923649    41.063001
O      2.187193    15.521009    22.397673
O      6.651248    44.379117    17.725056
O     35.799844    38.347089    36.436322
O     24.965761    41.642149    36.059901
O     46.675301    26.819280     0.708248
O     51.852673    54.577574    20.211450
O     36.718606    25.031139    21.496383
O      6.252855    45.792138    15.673224
O     20.791206    43.992245    10.846198
O     47.768066    41.065184    41.131012
O     28.585580    30.217157    43.589193
O     24.569987     5.689983    18.441112
O     53.382783     4.564384    17.852831
O     47.531018    49.925819    27.326793
O     19.134559    53.987989    10.471794
O     26.991686    47.858411    43.060461
O     41.395104    51.912620    46.063343
O      1.159827    25.811601    37.860376
O     24.827144    27.764233    13.525955
O      5.093683    37.746486    39.348113
O     55.318401    48.970990    51.345043
O     24.340075    41.982619     5.481441
O     36.308616    37.115710     2.137602
O      9.950512    47.357519    15.788998
O     47.887704    43.560682    51.720530
O     17.318507    38.621730    50.028295
O     34.707835    54.565506    26.352043
O     46.666100    37.618677    10.205429
O     39.279422    34.576413    26.150923
O     31.380667    34.775791    14.929085
O     16.718967    50.375658    32.538435
O     36.247152    46.773071     4.622523
O     28.043153    16.149645    52.341068
O     53.990229    13.011971    45.832081
O      4.982901    55.780922     7.378658
O     35.355593    14.921554    11.125972
O     22.343126    27.780980    13.673772
O     18.657350    12.192701     0.224486
O      9.155937    42.471794    49.012484
O     20.012215    47.419450    37.251708
O     54.713232    33.217401    51.289421
O     22.330736    13.268633    40.431000
O      2.891907    48.691692    20.400795
O      6.251980    12.489454    51.964080
O      0.391121    14.690043    31.901554
O     33.388584    37.925733    39.407645
O     52.886380    21.699210    15.647320
O     39.217091    43.171753    50.693367
O     47.756113    21.196414    29.429438
O     49.038255    27.787916     0.446812
O     41.815346    20.581044     9.598005
O     21.162318    48.271490     3.945860
O      2.715766    20.445396    12.284839
O     20.041601    56.133421    40.805848
O      5.387965    32.148800    51.951428
O     52.658276    24.504011    38.589256
O     41.181554    49.735488    14.961417
O     23.551833    18.980293     0.271485
O     30.606771    55.671181    42.595362
O      1.826180    40.798667    28.030704
O     12.066944    56.262107    49.111978
O     12.700535    34.930801    40.817860
O     26.683817    19.039765    45.839554
O     15.888249     4.204525     2.752662
O     24.747485    53.572329    29.357115
O     39.909670     9.063903    31.941709
O     56.082252    29.923207    46.266635
O      2.802331     3.671592    28.880354
O     27.795765     3.628433    35.880979
O     36.117402    11.459699     9.467051
O     43.666727    36.201314    43.861067
O     50.241769    56.059966    45.080088
O     48.822373    54.507834    41.097614
O     15.323672    55.717182     1.607022
O      2.947220     0.381208    28.703427
O     46.178879    26.638196     3.329885
O     51.792376    31.938763     9.140189
O      6.993680    40.835063     1.314119
O     31.896562     1.046800    22.353479
O     11.957242    50.001866    41.738704
O     36.634637    10.764451    28.450967
O     19.896811    11.217703    18.600764
O     54.050341    13.317371     9.957284
O     43.849596    30.171718    54.351832
O     46.949547    55.319533     8.171708
O     17.771349    18.018815    29.443692
O     54.354318     5.689583    55.825147
O     43.667963     6.573390    26.391047
O      3.810295    22.407143     2.245027
O      0.034684    17.432357    37.712949
O     46.668918    44.523005    16.309884
O     19.256565    17.749401    22.074517
O     52.938749    28.002712    23.564991
O     19.322762    48.292441    30.187344
O      9.458294    15.188621    30.521957
O     26.395485     8.753582     0.275128
O      0.164944    32.064406    50.228341
O     12.745396    13.928669    37.001278
O     51.139722    31.674671    22.058306
O      0.627370    20.839307    18.240240
O     35.793656    54.586471    43.029610
O     40.485045    33.879128    33.624926
O     51.727694     6.173685     9.213095
O     54.979912    28.702473    14.939910
O     53.757273     2.310505    50.752938
O     17.364341    40.990065     2.049148
O     42.705048     1.714787    27.109515
O      4.979105    19.813116    13.468779
O     21.745740    30.991111     4.012367
O     29.575857    27.579009    32.750343
O     28.786528    23.284696     0.744772
O     13.771833    50.487354    55.097297
O     43.949267    28.987877    24.781623
O     23.158738    25.768248    41.851002
O     28.265696    45.681499    27.418284
O     10.465883     2.671585    27.785100
O      9.808319     6.777437    36.690082
O     11.813203     2.107758     5.550189
O      4.914998    54.246772    26.345728
O     45.062287    52.516844    31.592754
O     20.766170    43.232004    24.779635
O      2.356938    10.899327     9.622324
O     24.474065    50.409026     0.411651
O     18.607726     4.106612    21.037407
O     47.457589    50.234596    15.397651
O     40.486058    48.330708    45.649236
O      4.658197    13.532345    10.814692
O     47.517619    39.623977    15.950442
O     11.703613    54.616040    52.160079
O      7.150338    19.836763    34.928758
O      4.781810    27.770643    35.639668
O     56.250562    51.695237     3.580941
O     10.686955     2.019956    49.451587
O     31.166565     0.473299    13.446562
O     19.987196     9.524050     3.865275
O     43.268533    45.271187    36.911301
O     40.767837    13.218156     9.252874
O      9.190033    39.589705    34.487923
O     45.126242    13.360050    50.189224
O     33.254984    34.561442    28.063230
O     51.708455    36.182591    38.785307
O     51.059178    29.752675    48.018535
O     20.876773     7.047479    50.438662
O     49.955078    17.435310    38.269454
O     51.007448    28.450860    31.008963
O      2.010378     1.556620     7.835987
O     18.229360    51.523553    35.793636
O     11.824289    11.488780     4.214552
O     39.825758    13.648308    33.035722
O     35.440718    51.683532    56.177474
O     30.024360    35.916200     6.992738
O     49.861475    55.400130    14.342827
O     29.753695    53.857565    11.361774
O     41.646659    52.814683     3.572460
O     48.583506    43.523140    55.962889
O     36.041652    53.795544    24.215013
O     46.595277    20.182270    47.629448
O     46.401680    30.490613    46.109201
O     21.565007    18.218683    13.995276
O     10.019668    38.358221    50.536955
O     36.271577     2.554984    45.555371
O     46.930952    49.519941    53.226398
O     19.529406    53.049172    49.014332
O     48.918480    17.874942    17.423042
O     11.396660     1.514302    10.339776
O     23.780963    51.450532    43.709456
O      4.282449    22.898360    30.109081
O     13.567280    33.518650    24.449915
O     41.820871    14.630104    23.755897
O     18.268622     2.443093    14.700531
O     22.867420     4.569976     8.791000
O     40.722160    56.127558    13.740606
O     24.370076    30.800611     9.932904
O     50.496403    29.807750    56.390482
O     33.602017    13.379099    18.241261
O     33.858440    32.606604     7.303832
O      4.496625    28.899982    31.499784
O     37.034364    54.621611    27.641563
O     36.272661    52.977187    11.475639
O     35.244455    36.954485    49.873563
O     22.118688    21.188240     0.449117
O      5.768896     6.586470    26.666549
O     15.615682     3.221468    15.206526
O     21.134550    38.772321    37.371147
O     28.410853    44.545401    40.102634
O     26.696460     4.212466    43.605118
O      2.358857    50.525509    53.388438
O     18.609880     3.462711     8.387228
O     49.113109    44.220604    49.488779
O     19.912928    21.158555    52.350936
O     26.225443     0.834710    42.178801
O     17.806016    13.810374    27.705968
O     33.467752    32.000389     2.118570
O     30.877762    47.497932    30.730021
O     25.757632    47.767476    31.798027
O     22.227516    52.485369    49.173162
O     50.554735    38.042532    40.249235
O     31.491812    43.547556    26.101269
O      8.315573     6.331475    34.586493
O     24.706751    15.556135     1.497697
O     13.172604     8.999627     0.434364
O     54.219412    30.691158    42.127469
O     34.676262    39.522028    42.282000
O     51.884505    25.024012     4.840856
O     49.357328    14.430450    41.797237
O     33.279681    16.943963    21.385218
O     37.278467    23.062136     5.419838
O     18.128290    14.884454    12.710539
O     22.817919     2.621384    10.580662
O      3.557142    53.577468     7.088207
O     42.920168     9.931467    30.765608
O     37.345179    47.775704    29.933139
O      2.695772    33.924161    26.413771
O     43.267857    18.763941    39.146160
O      6.985702    16.548522     2.540626
O      8.039590    40.761008    20.987812
O     52.558324    39.206263    15.199110
O     17.047824     8.917320    21.069759
O     40.980434    32.872789    25.303237
O      3.830858    15.946393    10.493422
O      4.256156    39.954117    40.557549
O     20.795730     8.075929     8.179418
O     33.553593    27.957033    10.403919
O     34.257654    14.052108    25.993618
O     30.566682    21.325634    26.074250
O     55.287351    26.879353    32.406658
O      5.344172     3.435903    44.861252
O     34.023305    24.509064    21.198824
O     45.209697    50.374878    10.766424
O     14.188923    50.453986    33.175818
O      2.434364    19.079567    26.567386
O     48.745583    53.882793    44.606385
O     26.840663     5.587780    32.800156
O     54.472903    21.213725    50.043306
O     40.022850    25.036905     7.890297
O      6.308576    56.169510    50.305168
O     56.145114     8.488687    20.694144
O     35.671423     6.601037     7.465133
O     51.848430    45.544814    41.111439
O     44.202485    34.693713    11.436964
O     42.773909    14.671216    10.348870
O     13.369573    17.644598    17.881049
O     24.700340    17.380441     3.366012
O     13.603546    36.865847    47.419977
O     33.822279     7.442252    51.250492
O     33.275143    50.557938    32.017134
O     34.799778    33.020931    53.568999
O     43.320866    14.585333    42.486338
O     34.398582     8.453062    53.578184
O     33.420431     7.436158    15.827130
O     30.090717    10.106890    11.672769
O     35.533941    28.814401    15.071896
O     53.109345     8.308430    31.120902
O     28.207078    24.663453     6.764678
O     30.527540    20.500467    13.655005
O     11.147275    16.970786    47.304758
O     20.591624    39.471812    48.876553
O     39.341719    10.629546    24.373224
O     21.643727    27.331321     9.675871
O     37.694485     9.031035    42.286685
O     54.911725    45.155519     8.798734
O     25.319104     7.782691    29.305470
O     12.790938    17.680852    25.078388
O     18.310501    38.124417     3.245321
O     10.377035     9.001599     7.932140
O     26.162570    53.652198    37.253156
O     43.234919    55.461462    54.265763
O     45.594106    22.307430    14.002901
O     24.022463     0.885245    26.509752
O     24.945298    16.929198    49.160734
O     20.641588    47.612425    18.661743
O     46.826047    39.651691    47.176081
O     11.955642    17.871974    40.305309
O     50.932497     7.932598    16.740163
O      3.565772    52.537855    15.565153
O     14.815314    26.803874    10.494371
O     20.696869    53.408374     5.433587
O     10.961524    48.347065    49.318822
O     47.295679     6.590093    34.026782
O     28.060551    29.481268     1.345797
O     49.602861    24.439732    35.028811
O     10.202813    31.382437    32.943153
O     55.263604    30.704223    37.013999
O      6.731981    51.763529    56.345539
O     55.282076    41.514012    32.834444
O      2.555257    40.007505    32.901449
O      3.496149    30.032171     7.074392
O     46.880036    24.189061    17.536787
O     12.367748    42.457597    14.671996
O     47.534961    24.665071    26.666542
O     35.424110    35.472012    52.937708
O     48.838990    45.909193    30.853386
O     28.674468     2.473555    46.408852
O     47.273872    54.265620    27.011487
O     33.810631    50.260669    46.318503
O      9.678891    38.946618    43.015465
O     40.382708    55.159609    11.281157
O      0.734945    29.882447    35.183146
O     19.278743    47.609181     7.382504
O     52.632553    49.517397    42.708029
O     28.760904    31.937158    18.028585
O     30.767540    38.472548     4.155605
O     46.113438    55.120181    24.815717
O     13.653751    21.828407    22.875726
O     14.937692    18.488539    22.609226
O     19.863410    44.907779     0.587913
O     35.395683    48.138139    25.898143
O      1.139425    31.371153    52.587945
O     20.379876    26.113350    42.476613
O     42.653770    12.924805    40.478692
O      0.758160    45.338426    48.814338
O     17.527826     9.556898    45.511090
O     18.867169     3.828495    49.789501
O     33.946682    15.485178     4.587920
O     35.201970    41.049006    56.220665
O      6.647845    46.961403    54.031034
O     53.377638    49.273471    24.497265
O     56.413604    40.142233    23.770513
O     46.774058     2.247080    50.202769
O     50.431110     6.707139    11.445558
O     33.491619    21.110007    44.553329
O     15.263855    11.405886    23.962212
O      5.264694    15.691793    32.927332
O     26.307064     6.964943    54.812891
O     26.111703    35.032022    49.682348
O      9.932547    30.777773     7.140303
O     30.087597    54.099780    34.081252
O     53.311296    25.538435    22.835867
O     40.758390    12.367941    23.148535
O     19.644490    15.970194    53.445035
O      7.861331    43.709227     5.951786
O      9.812974    22.656376    20.689768
O     42.970806    49.359784    25.644624
O     31.946941    46.784333     6.885254
O     16.077535    11.536467    49.777167
O     30.866253     5.816838     6.223952
O      8.546421     5.330647    14.201538
O     18.147327    39.129398    23.329068
O     14.421867    21.810967    41.983280
O     38.941102    51.200154    38.134282
O     28.237006    45.722443    45.392772
O     23.550254    56.009411    19.704767
O     20.369282    11.977764     3.088497
O     24.612063    28.409656    51.475179
O     37.431436     5.151016     2.411323
O     14.862550    50.316986    28.200857
O     26.390367    31.914970    37.558178
O     25.863301    37.253579    25.122243
O     42.873550    13.161439     5.971679
O      1.974332    24.911516    18.776282
O      0.124380    31.143575    30.763482
O     17.771495    20.467334    10.057194
O     26.836059    22.312947    55.881464
O     51.148989     2.046352    50.921038
O     27.465472    30.341942    55.553884
O     23.128825    45.823941    49.427466
O     21.546242    14.008739    24.590111
O      9.162228    24.572440    30.787408
O     16.125471    12.934600    34.856723
O      9.431274    46.715446     6.384861
O     52.875531    46.688206    34.070071
O     38.927460     2.285396    25.477949
O     20.168352    50.918106     4.413634
O     36.680024    15.518808     6.648414
O     31.197828    12.226465    18.042650
O     23.995842    54.312179    26.845060
O      0.938432    53.847845     6.377049
O     51.466577    49.042045    17.236986
O     42.098328    27.438154    28.501669
O      4.274875    40.504542     5.436607
O     30.947337    19.421292    32.944024
O      5.311931    41.758513    14.159349
O     16.157792    39.452285    41.066592
O     44.622945    19.428238     3.509235
O     39.109909     3.198658     9.281329
O      7.523139    29.310408    41.422367
O     16.764515    48.190225    55.442859
O     46.612144    53.897332    33.463352
O     38.533057    50.228357     3.499025
O      2.248745     3.193156    13.969508
O     44.845162    24.855428    47.165885
O     52.809509    18.826832    51.638494
O     23.513924    12.645280    38.111835
O     36.593811    20.508830    42.526484
O     25.090986    49.340325    38.697343
O     35.333881    37.900483    33.828439
O     37.374310    38.564708    50.117462
O     21.096149    45.115654    53.204656
O     30.814950    38.158109    23.406669
O     39.791573     7.490758    42.490708
O      8.327013    16.369557     4.784374
O     33.865651    10.257693    10.002417
O     51.370628    25.180274    49.731165
O     31.736674     2.541835    27.003343
O     47.434214    34.246121    45.876830
O      2.016763    35.983488    25.075922
O     23.191332    25.163806     9.436260
O     23.904235    44.994620    43.060086
O     47.694162     2.999902    36.679966
O     17.669497    15.664586     2.842137
O     14.564691    52.306674    40.978443
O     43.201934    27.858915    35.477409
O      4.117451    36.911409    50.530712
O     23.005820     4.262558    26.673483
O      7.651760    37.845186    49.310496
O     55.243709    13.157720    17.096758
O      6.346247    21.435260    20.673752
O      8.981207    13.274915    26.795027
O     35.701211    19.834926    32.106321
O      0.423139     1.827196    30.876348
O     35.464208    30.699021    31.090498
O     47.261367    35.372520    40.534243
O     48.602134    27.114969    10.786926
O     45.883144    21.425822    21.706057
O     29.368920     5.844621    31.784585
O     37.530278    34.245744    12.516786
O     20.198119     4.112065    38.458858
O     16.408808    31.910226    25.292573
O     48.026955    45.386271    28.322639
O     42.261981    18.342577    19.380704
O     29.412326    46.307077    17.344912
O     42.368431     7.372803    35.828037
O     12.730823    18.174106     2.813309
O     12.492898    47.950067    15.825088
O     54.144237     9.365795     9.944124
O      5.875743    43.146025     1.205858
O      9.610396    29.744726     1.052146
O     24.265993    12.740581    51.619117
O      9.873275    54.698306    14.214162
O     37.706768     6.516840    41.232207
O     35.733416    23.173437    23.979446
O     48.444420    56.084618    43.193046
O     17.555537     1.174786    24.596068
O     26.696740     9.980102    19.501377
O      9.803769    44.286717    12.318566
O     46.543207    46.568636    34.102612
O     13.507843    31.357716     8.746661
O      8.563729     4.227298    45.447887
O      5.439102    22.832904    27.485185
O     33.514847    54.786139     2.494550
O     17.330898     6.759308     7.190442
O      8.563408    43.899425    31.808552
O     36.211591     8.415406    34.859533
O     37.838680     7.864061     4.446206
O     33.053991    48.559908    53.432534
O     45.233876     4.704148     3.497904
O     36.947702     1.858924    17.085063
O     15.646568     7.301031    38.901641
O     30.440714    22.299201    15.557389
O      3.113488     3.286116    23.803146
O     45.529169    50.464678    20.189842
O     40.006393    43.337257    38.135244
O     31.087081    36.043507    35.662314
O     40.797959    33.141607    16.006220
O     15.474527    49.292308    53.421188
O     46.529128    21.466989    42.342106
O     34.799689     1.610930     8.013288
O     53.392994    23.364434     7.315961
O      5.213058    45.319552    49.345855
O     52.395221     9.986922    29.266677
O     39.267358    51.791429     5.676125
O     10.647206    42.429614    31.197022
O     49.383499     9.679370    39.543132
O     27.776578    36.939440     8.158568
O     45.857429    18.700817    10.856273
O     41.739643     8.232614    20.847579
O     14.170831    52.580780     8.758576
O     42.353659    23.928980     7.339378
O     13.673273    54.907704    22.595347
O     33.850834    22.907747     1.162249
O      7.642610    29.214992     2.670350
O     50.979565    50.620613    31.089256
O     10.016403    55.492499    30.950363
O      2.904634    48.424239    32.128571
O      4.221021    16.030737     1.677330
O     31.715157    50.201956    19.141925
O     15.411440    13.844249    47.181846
O      7.087139    39.224340    38.580417
O      4.191946    51.909072    42.758366
O     30.376028    29.846519    17.392471
O     49.707270    13.926209    34.511193
O     40.021435    28.023782    25.764758
O     40.747759    45.969227    53.870636
O     16.043265    43.466892    10.284697
O     29.467394    20.045939    39.171477
O     22.280010    11.494772    46.288880
O      9.753161    41.172777    18.775526
O     56.475987    31.623123    54.945222
O     19.102433    14.488388    25.472666
O      8.701433    31.081591    55.695249
O     52.969316    19.371340     6.110055
O     20.610155    37.985772    53.625077
O      4.800335    42.228050    41.941304
O     29.302484    18.347565    51.478664
O     38.336136    49.985725    25.824004
O     45.611729    21.872463    17.450959
O     54.102754    11.071013    33.461627
O     50.437516    16.462028     2.531612
O      3.530180    28.330336    55.337236
O     14.095662    17.385558    43.961698
O      5.055946    50.535084    13.739395
O     48.953228    15.386759    32.341859
O     32.402001    34.329893    30.611844
O     23.560881     2.585973    34.115371
O     29.510757    43.392271    27.844967
O     13.444395     7.240355    45.636641
O     34.544923    11.250268     7.372252
O      8.968504    50.700870     0.737021
O      9.845023    21.692919    55.131129
O     15.614715    44.851061     8.042085
O     33.657319    22.706929     5.186891
O      7.034003    56.541232    22.819336
O     21.842171    33.515546     3.157180
O     51.386506    50.736128    25.498372
O     46.602473    41.782867    38.801661
O     39.024779    47.287857    43.755934
O      4.490139    12.039487    47.505353
O     41.651615    34.438447    50.376690
O     44.622889    10.486761    23.038997
O      7.610932    15.590207    52.161243
O      5.970417    33.851573     0.896761
O     24.019166    27.448050     8.584035
O     51.030467    10.501689    17.395317
O     36.820156    25.857315    16.729607
O     29.922634    11.427243    23.295553
O     42.895269    46.425644    17.700410
O     24.938543    38.602106    31.571095
O     36.313839    51.410860    21.948247
O     12.748345    39.449434    40.940043
O      2.748474    39.047930    49.706589
O     16.286385    15.207459    33.473360
O     31.088651    19.843416     1.805797
O     14.914865    38.029970    51.241139
O     44.436953    16.568057    47.361447
O      9.400861    27.903248    46.584846
O     53.645078    37.721747    43.889315
O     23.713241    31.020980    44.075741
O     52.407263    38.344651    12.527430
O     29.074306    51.338420    23.240143
O     39.801377    16.019779    45.653294
O     35.556351    27.313739    34.893608
O     18.645639    29.209653    36.189542
O     28.822204    38.469503    37.136743
O     25.160648    31.993492    46.141299
O     49.304401    37.490113    38.086435
O      0.917722    31.601802     2.019889
O      6.687603    37.138240    32.016766
O      0.153568    15.014405     9.171068
O      1.551014    53.671765    10.977355
O      4.866014    47.471553    27.099699
O     15.243478    14.905607    43.134483
O     50.684979    28.821191    10.522968
O     38.463411    49.193727     0.894330
O     51.149782    27.167314    40.836263
O     37.220842     3.915440    34.475217
O      6.720277    49.333878    52.813774
O      9.801385    18.893192    27.918262
O     48.949806     1.921339    56.223262
O     41.310515    37.303487    18.789377
O      6.273724     9.658949    32.231077
O     20.349877    31.925438    12.889824
O      6.325612     8.319101    17.362316
O     25.157670    45.811211    36.648475
O     42.599344    52.040894    50.984193
O      7.093392     0.396048    31.693105
O     47.992168     9.829941    10.446539
O     16.901855    19.632541    41.411515
O     30.507099    41.346725    21.527452
O     16.481849    27.155955    45.302656
O     30.648749    33.896328    43.464661
O     26.307215    51.580295    15.493853
O     30.646855    28.133088    40.765477
O     29.560692    36.302697    30.913003
O     20.861346    13.373677    19.713807
O     28.660307    16.312672    26.857100
O     13.553445     1.220244    24.534804
O     15.579557    50.929862    44.576807
O     56.200151    42.102687     1.018415
O     32.924121    31.234634    36.193940
O     35.398236     1.165709    25.351065
O      6.009169    52.735078    45.564490
O     46.997584    27.264718    29.307789
O     25.337597    29.842550    32.760818
O     32.163967    35.532446    39.036781
O     37.297048    11.066520    11.775834
O     45.987679    20.983262    52.018452
O      6.957680    56.437469    44.219192
O     45.629113    13.258821    18.821810
O     48.200245     4.344419    45.337803
O     24.838795    14.460272    53.526377
O     40.379486    51.010759    17.108178
O     27.973449    33.788406    36.834197
O      2.774368    52.557495     4.821418
O     51.464462    22.513083    43.310855
O      8.147667    43.514833    37.531745
O     49.236104    49.994499    21.762999
O     47.192169    14.724910    11.428197
O     19.390731    12.588231     8.785159
O     22.551510    54.031871     7.235159
O     24.761727     5.924194    22.241130
O     30.361722    27.425525    53.406176
O     55.926322     5.864019    24.379039
O      2.985735    23.278757    27.891511
O     33.273630    39.054979     4.788052
O     16.513196    19.105416    34.498802
O      8.231176    27.177674    26.751852
O     15.475983    21.914662    13.334799
O     39.707840    45.019858    42.768432
O     17.892566     4.815318    45.053264
O     56.116727    21.212523    42.095728
O     14.260206    28.962497     9.194664
O     17.911210    33.071667    15.754512
O      6.136959     1.915771    42.852081
O     21.553834    21.553409     5.687897
O     13.989195     4.629110    29.376205
O     41.983218     0.819601    18.237664
O     55.512081    33.155652     1.559001
O     56.327795    31.980079    11.583229
O     49.171317    18.704547     2.419510
O     47.778699    10.589852    52.951694
O     28.097279    21.813147     9.769723
O     24.118709    49.783388    31.636608
O     48.984357    28.531275    46.772253
O      3.243709    27.145767     2.946896
O     35.414975    17.352264    14.148244
O     36.378536    49.018777    14.694674
O     44.229905     1.876861    17.325638
O     24.641378    13.339371    12.977770
O      3.198051     0.838018    10.146945
O     11.706628    27.904704    53.232675
O     20.097483     2.339292     2.172314
O     22.589138    49.412931    45.168439
O      2.552405    28.279621    40.410196
O      2.066440    56.572174    53.420077
O     45.245601    25.863030    40.476231
O     51.330620     3.191828    29.092073
O     10.708633     1.983549    40.266836
O     25.742878    25.607291    42.009353
O     21.611037    11.863702    16.807298
O     16.028973    50.130524    35.043458
O     13.543482    35.102979    38.276511
O     27.832898    38.518362    13.086153
O     27.597193    21.066496    40.483613
O     25.105110    24.430019    49.740068
O     33.456810    33.757719    35.849320
O      6.887713     9.370492    22.272315
O     17.244299    55.778659     3.313903
O      5.258465    48.867212    36.445041
O      5.437744    22.647323    52.935327
O     47.751838    52.256329     6.725144
O     14.295953     2.247415     4.634719
O      2.796361    16.015467     3.824240
O     52.400708    36.616874    32.340338
O     50.004448    13.089342    17.503253
O     46.162067    52.518694    48.154626
O     52.798593    12.733727     3.813842
O     52.156578    29.011692    26.139324
O     56.238600    53.152813    33.260458
O     14.069832    36.765187    56.066005
O     44.464182     9.272570    54.657119
O      6.200917    34.638120    30.637571
O      7.581291    53.048098    15.885734
O     13.880682    36.215756    18.626230
O     16.297747    48.415833    43.792805
O      7.111093    24.510568    43.394151
O     17.924763    49.123940    22.014232
O     45.872460    12.758928    35.496977
O      3.358010    25.500546    46.172286
O     16.609867     8.800896    33.332278
O      7.061387    44.886041     3.856549
O     29.149060    42.019844    35.690665
O      9.018534     8.974126    46.461871
O      6.261607    11.831307    16.961793
O      0.268380    19.638123    12.603224
O     27.480783    50.418434    33.357053
O     41.864372    41.525030    54.288553
O     12.119118     3.539043    11.757954
O     51.485543    36.692458    49.917042
O      9.326142    23.620232     0.352193
O     30.000578    44.939191    15.136462
O     52.034626    49.388905    14.578444
O     44.817039    13.017088    33.022840
O     49.789390    41.288394    55.155609
O     53.840055    25.392414    30.762328
O     17.935867    28.058233    38.396502
O      5.808458    55.963837    41.994660
O     32.563457     2.355797    24.493063
O     26.113183    42.166642    25.663936
O      9.948215    43.049389    28.714094
O     23.207303    22.075956    26.912365
O      8.966170    35.670140    23.739334
O     50.818752    53.956279    39.345996
O     43.709756     5.969457    51.351334
O     24.207497    52.810172     8.990796
O     45.380949    11.339914    48.433192
O     16.320377    55.307151    22.186638
O     22.422676     1.863828     5.225133
O     39.216898    47.728612    55.374269
O      9.678966    46.861756    12.610503
O     12.273534    40.564365    17.896346
O     15.684518    20.205012    24.729111
O     40.510838    39.133971     0.924437
O     53.038787    10.468943    35.787214
O     31.178245     0.971403     7.216139
O     13.168317    16.756958     4.962459
O     44.980387    41.082948    46.103134
O     26.322294    50.857829    52.144286
O     49.616989    24.861318    37.596095
O     47.215935    33.559583    18.409241
O     29.057984    50.422263     1.097420
O     55.472568    28.633774    20.103421
O     26.204563    30.427409     4.750288
O     12.384394    27.979359    48.331180
O     37.095203    52.733244    13.930717
O     48.121424     4.624499    28.201486
O      6.260036    27.603963    24.351750
O      9.815721    33.718202     0.359348
O     26.855500    43.095652    33.492564
O     46.224947    35.708909    26.416292
O     44.540159    32.137723    34.066640
O      0.563242    32.476408    34.640717
O     16.199703    51.743951    13.879546
O     55.210642    40.243902    40.678228
O      3.094684    11.988812    29.580762
O     54.045202    17.592189    55.962006
O     52.163015    29.028825    51.426336
O     35.151266    50.329894    40.563276
O     36.278956     2.596970    53.603513
O     35.090615     8.704775    31.621935
O     49.110889    49.306520    10.473910
O     42.504398    28.004692    15.789001
O     50.773963    27.919163    16.330341
O     25.534839    20.530974    52.680752
O     32.866906     4.980804    36.177769
O     11.529161    24.069542    42.812962
O      4.102185    13.201476    16.390434
O     38.893418    29.066288    23.747423
O     30.856951     2.781794     5.297551
O     40.281244     6.532557    13.984863
O     33.718031    14.446509    20.566633
O     42.075787     1.311958    37.216637
O      6.039027     5.560501     3.076673
O     19.829730    34.783875    47.317131
O     20.477171    28.095206    37.783258
O     41.324365    21.262680    12.221146
O     11.340371    34.068697    14.868449
O     43.253453    21.408646    39.423746
O      6.952863     7.211448    31.681541
O     20.069758    44.806158    44.168714
O     31.146846    11.870483     9.964593
O      7.440149    49.029043    29.646818
O      5.102006    16.483195    12.694024
O     36.948570    38.317206    42.819676
O     24.416997    11.450348     7.794367
O     10.603348    32.732621     2.647707
O     30.964229    38.719539    38.942813
O      3.916787    33.632960    34.100932
O     44.672013     6.683270    34.627223
O     30.092117    11.352739    31.096830
O     39.880984    40.766112     7.287684
O     44.172617    44.604964    22.452893
O     10.582328    27.844219    11.595139
O     24.569486     1.546036    38.283364
O     41.095440     4.160147     0.951789
O     48.559767    13.101764    25.562259
O     46.796293    35.562751    15.020051
O     17.624170     5.587442    19.194068
O     31.508652    47.685937     9.432225
O      8.816835    32.516741    45.497394
O      6.733892    29.748125    25.928401
O     37.407520    16.016333    10.058686
O     48.338199    44.709389    25.834816
O     50.686031    21.495000    54.027477
O     47.143189     3.643943     0.438039
O     32.495606    28.216166    28.275700
O     49.866728    42.263927    42.372639
O     26.247349    39.745103    24.701351
O     33.022753    54.142414    14.317847
O      1.313681    55.890423     9.446311
O     53.904944    50.101742    27.861669
O      8.645824    37.376472    19.198484
O      5.335050    33.319212    26.480440
O     35.298033    15.426634    30.128257
O     35.647981    19.110989    11.976871
O     42.583572    44.693922    41.755933
O     55.048711    12.463697    54.923462
O     20.171931    49.275047    23.320678
O     41.438992    30.966426    47.089318
O     43.180304    45.094928    46.671487
O     21.916778     3.800256    32.489523
O     24.115754    37.084220     6.776893
O      1.685687     6.498004    11.595247
O      3.444991    38.654759     1.859415
O     23.566193    47.221210    38.138184
O     48.586204     3.041678    18.626571
O     37.953839    22.813201    55.381608
O      2.799601    28.851846    42.914634
O     16.367585    45.919354    32.200510
O     50.258255     3.231950    37.288793
O      3.303520    13.057374    22.743217
O     46.990658    46.295642    44.472516
O     38.330331    23.504339    52.863168
O     32.271072    36.569574    21.625342
O     53.227117     9.043501    17.223910
O     33.750936    54.641752    50.402643
O     12.586941    51.902847    43.497683
O     49.777047    42.410039    44.894500
O     49.975977    12.759887     5.210605
O     29.306960    48.620762    55.861507
O     40.999514    17.340403    39.216784
O     13.236262    22.726488    44.200741
O      7.619930    17.107249    56.488577
O     27.151808    53.562691    39.607351
O      9.816818    12.892930    21.142553
O      1.869432    40.574830     0.770530
O      0.461565    39.682362    50.851021
O     11.448962    51.719055    21.463227
O     39.766878     7.288820    29.924270
O     55.107204    24.151243    21.376035
O     21.655587    47.665086    54.167941
O     42.431615    37.387110    23.558437
O     14.737504    26.742224     7.886206
O     30.789112    20.317974    50.456028
O      8.983657    30.110116    12.971199
O     17.175646    15.136832    48.717837
O     55.895727     3.737911    54.812778
O     12.815940    21.834923     9.308505
O     15.566155    37.440115    45.642470
O      6.121079    31.743351    49.327956
O     31.332979     1.036869    31.598685
O     20.880174    14.138441    31.072306
O     33.980568     6.544900    38.009717
O     51.865572    24.846510    18.981326
O     20.903860    37.616014     2.621004
O     27.228815    50.993209    39.497003
O     25.372596    37.317758    22.132273
O     39.856934    28.662783     4.618925
O     37.772900    48.654354    45.530052
O      0.178657     1.750952    53.298140
O     17.288749     6.850446    50.989583
O     14.789750    16.134120    48.367539
O     33.635082    38.198896    15.578301
O     38.657875    46.606260     3.517906
O     36.833222     2.471899    27.082145
O     20.408682    11.554218    31.467550
O     19.422827     4.786115    32.988965
O     27.895832    29.783808    24.789645
O     26.724580    52.456626     4.914197
O      9.324803    47.381559    42.408747
O     14.248418    42.772906    31.259190
O     45.060042    26.129474    17.726241
O     28.402713    35.184008    24.872354
O     47.278888    29.421316    27.718734
O     27.028104    53.887620    11.517342
O     17.237763    27.439276     9.830110
O     17.764338    36.420038    44.476062
O     44.947329    22.228459    46.971333
O      9.496348    34.954386    49.769247
O     18.194900    36.576460     9.599167
O     37.405513    12.770867    33.450354
O     51.427034    56.308535     7.078130
O     38.297673    54.000225    22.884809
O      8.963385    11.286971    45.296819
O     21.320033     8.290273    29.114642
O     27.439030    45.929551    38.006135
O     13.758002    50.695520    30.579350
O      1.639825    14.456296    41.524664
O     54.311126    23.008061    32.978835
O     27.402375    50.628423    27.908522
O      0.544290    24.495224     9.039069
O     12.682757    54.445493    34.543728
O      4.586150     6.924721     8.545434
O      3.001030    31.359680    34.927622
O     32.909396    29.331751     3.487731
O     12.210982    15.381360    41.424357
O      1.356529    32.997576    41.734822
O      6.154744     7.875468    39.557098
O     11.661001    23.894513    31.772382
O      9.354653    35.974314     7.606104
O     11.100128    19.639640    47.874619
O     13.837993    52.548702    52.310096
O     32.214024    12.210209     2.558491
O     54.459507    36.090853    38.922527
O     32.019280     7.778133     0.610391
O      5.345833    30.094606    23.742410
O      5.500436     2.227149    38.201931
O     17.066397    24.233963    20.597002
O      3.458273    21.447497    26.131735
O     45.574563    30.573806    26.118748
O     37.720949    15.374915    33.265108
O     50.431231    31.098737    31.124808
O     18.628205     8.070389    47.205953
O     39.995774    21.479311     3.278909
O     18.049548    19.617820    36.523863
O      7.979786     9.644307    40.332681
O      7.819431    26.417763    29.279321
O     48.362431    54.162706    48.961279
O     16.293794    37.367992    54.957135
O     15.343651    34.159617    18.195703
O      0.498310     4.542873    37.588398
O     23.844157    25.619934    34.848509
O     27.457872    12.344224    18.743981
O     21.494876    34.185016     0.628471
O      8.003458    15.476003    21.874265
O      2.522812    55.863864    38.027202
O     39.738678     6.532891    23.282136
O     47.263249    28.372723    14.083996
O     55.698826    46.194766    53.794755
O      5.030169    54.211655     0.129891
O     47.783707     1.336851     3.827972
O     13.846287    44.389019    13.498565
O      9.364591    27.106503    18.548647
O      7.533250     8.724216    49.334388
O     47.674919    13.620179     2.666324
O     43.085066    10.568791    20.974526
O     54.170732    26.252115    14.613977
O     18.663540    41.530694    56.296512
O     43.364411     0.485046     2.196428
O     44.000861    48.934499    44.627284
O     34.413154    48.844046     5.309785
O     42.898265    30.392949    32.659170
O     41.711843    27.737649     6.266612
O     47.374059     7.949786    39.058168
O     48.255950    44.371794    45.727323
O     11.837574    15.502387    54.336729
O      0.400944    54.752067    54.266236
O     20.574318     7.252894    34.595007
O     55.263144    30.899384    51.920599
O      7.695419    10.963831     2.439189
O      2.042895    56.257333     3.029430
O     33.676384    52.953600    52.456136
O     49.937918    48.412710    49.681837
O     17.398954    53.916314    25.558008
O     34.370524    25.489638     1.388318
O     40.428768    24.427706    31.645781
O     33.596246    17.230030    48.700672
O     20.152901    50.175118    34.618485
O     28.821993    35.695145    44.436198
O     42.295337    55.867902    40.027208
O     28.737733     1.741455     4.124597
O      4.630752     3.263013    16.866847
O     26.441253    31.683860     8.492334
O     14.238549    45.727859    44.871758
O     26.256767    17.047180    43.161052
O     24.351604    36.797893    47.628065
O     32.520202    28.466510    23.459649
O     26.360434    14.331335    51.486276
O      6.965702    26.641732    19.447119
O     38.096744    21.260722    49.502534
O     37.947223    33.303986    24.114350
O     32.814946    20.650831     3.768934
O     29.467765    19.513442     8.942495
O     50.419770    40.360795    23.209601
O     31.598470    36.597971     9.567636
O     42.718828    13.280401     0.189418
O      5.911515    17.177757    21.937044
O     54.443960    39.664148     3.177630
O     56.400090    17.764298     0.440790
O     28.850437    49.173842    29.829864
O     17.910744    15.424802    22.497661
O      3.716061     3.712390    52.601642
O     18.710286    30.313112    27.915050
O     13.623364    25.388175    43.756371
O     36.387821    42.691152    18.072290
O     29.641521    47.870422    26.782883
O     26.041704    45.633411    33.281111
O     46.332144    40.275987     9.528609
O      8.931184    25.951694     7.011873
O     16.169506    33.579149    51.023983
O      0.592014    12.145744    42.339774
O     18.182670     3.316291    47.226779
O     46.815661    46.354531    39.941135
O     12.773256     6.758704     1.679401
O     22.665359    32.816692     5.579711
O     32.131668    53.787815     0.598915
O      7.923058    48.331391    32.130764
O     40.074086    38.168263    22.688951
O     31.865252     9.716014     2.231221
O     38.805904    28.735737    38.407064
O     32.322558    27.173993     6.522937
O     13.336958    43.431518    49.623264
O     17.043919    52.133398    21.310195
O      0.520332    32.826460    16.659218
O     17.777544    51.605684    26.614945
O     15.191967    24.173221    30.475101
O     38.329162    42.815789    42.346658
O     34.130318    39.604835    53.962308
O     37.073867    21.219791    25.107825
O     10.227046    33.822127    37.037633
O     12.282306    43.061030    25.610648
O     10.360299    18.786928    25.319835
O     54.333712    45.136888    32.553083
O     16.433108    10.709157     0.275356
O     35.098214    23.794631     3.221204
O     41.877431    48.017303     1.933371
O     49.249055     5.593483    35.315068
O      1.678550    25.425683    25.019783
O      5.890762    14.907337    45.374124
O     17.129607    30.686616    16.739106
O     20.845698    56.388956    37.995595
O     25.931757    31.664367    14.392724
O     18.261017    43.316833    45.351435
O      2.676102    31.791941    30.483524
O     16.640150     4.836278    11.320291
O     15.333601    53.081917    19.567001
O     28.921095     0.346384    32.413843
O     19.982653     6.882708    18.542217
O     22.105177    42.797572    52.549847
O     36.692277    15.068615    55.247235
O     32.220313    48.370915     1.865658
O     42.545436    44.193385    54.347877
O      5.799186    31.529162     1.915309
O     38.231817    45.217533     8.031418
O      8.638263    29.873291    37.774470
O     20.509805    52.998461    52.479904
O      1.656241    44.400966    11.927388
O     28.159953    38.086848     4.229743
O     11.829844    24.684529    38.421137
O     50.596601     5.558238    28.164424
O     56.157186    37.976480    39.769431
O     52.026322    29.587489    43.101031
O     53.943945    40.747096    30.771796
O     10.633590    34.466347    44.952365
O     42.818290    40.796459     4.686158
O      9.893419    42.137898    13.844476
O     30.020363    41.169389     7.682381
O     28.787459    55.686229     3.961656
O     44.061597     6.080362    12.441791
O     18.142698    10.854737     2.392107
O     16.578982    10.029807    15.975703
O     52.756305    40.031535    36.040199
O     39.778424    24.027430    39.235778
O     51.588855    41.320669    14.178948
O     44.934297    35.468608    39.075882
O     55.706582    17.234428    48.176374
O     26.017956    39.985127    12.045885
O     45.711614    29.895394    48.566615
O     22.118384    11.626847    25.280667
O     47.683061     5.400874    38.547689
O      5.645605    35.674699    33.910091
O      8.560012    13.210093    52.746142
O     17.743561    29.760926    24.516162
O     34.819788    48.458362    12.610547
O     43.034652    51.526110    14.746738
O      4.743266    54.090250    33.040375
O     22.640107     6.315653     1.877335
O     36.582459    50.909488    42.651703
O     20.108336    26.719293    52.655888
O     38.181956    10.765905    55.995118
O     13.343868    48.084453    54.407498
O     36.624613    36.664899    19.570944
O     22.931444    50.536676     9.149635
O     28.924727    25.800347    34.699337
O     37.498944    33.637899    17.050502
O     23.973665    17.674494    41.994649
O     23.495783     4.200373     0.501964
O     28.595916    27.803298    56.090663
O      7.878877     3.833508    35.186792
O      0.050115     5.517542    51.937479
O     26.144592     2.708742     2.593878
O     13.074866    30.759872    40.128653
O     40.130201    24.378049    43.698820
O     33.751965    34.536672    25.374027
O      6.893384    33.485500     8.505238
O      9.611552    22.714126     7.163242
O      6.908491    50.443006    50.441326
O      5.241520    31.769843    29.802207
O     40.118340    49.894067    41.288515
O     10.701396    52.199182    27.704135
O     37.432953    36.624931    48.260174
O     28.653379    53.882864    36.271127
O     27.136280    49.848957    20.651837
O     29.355618    29.456922    45.807105
O     21.703429    46.407500     2.027695
O      1.179481    28.628577     7.511400
O     39.359215    24.902785    20.803577
O      8.384101    47.009292     3.075709
O     21.023103    22.058770    22.614972
O     31.075019     6.290568    42.243054
O     56.098206    31.035422     5.726339
O     35.436053     6.429589    30.444150
O     37.913897    13.666449    16.084641
O     26.927077    14.252031    41.080721
O     12.734617    44.549796     1.493273
O     50.838425    10.181479     4.350140
O     43.395028    55.779588     4.427325
O     25.350226     4.647715    46.672919
O     53.661199    51.767456     4.523699
O     40.532616    43.931460    22.913248
O     41.759146    52.149598    33.808349
O      7.877168    49.415985    55.129803
O     33.401724    12.648462     0.234514
O     10.525090     4.376758     5.148012
O      2.580011    15.765454    32.622286
O     11.144670     4.690746     1.616431
O     16.365987    23.742137    49.331734
O     38.162559    54.783249    51.676179
O     51.701979    55.183690     2.332866
O     10.520716    25.574217    35.940958
O     36.005403    51.404549    19.353484
O     31.438710    43.082550    16.281326
O     36.739404    51.289481    28.327290
O     36.274177     3.543008    24.832226
O      0.497698    35.444633    27.214700
O     54.023956    30.741342    34.642240
O     15.022992    33.621719    33.210135
O     51.292102    31.726067    39.142842
O     54.981374     7.449950     4.976875
O     30.089420    23.718284    43.568713
O      0.555142    21.603007    54.506290
O      6.909025    52.015090    52.682359
O     38.904973    41.934704    52.968250
O     36.019328     3.952358    20.803689
O     48.142601     8.148891     5.823742
O     15.521231    49.491407    12.878229
O     33.785502     3.010128    16.721816
O      4.330861    12.558370    38.877569
O     22.810111    45.105503     9.613456
O     49.022909    15.352333    13.286597
O     34.267024    17.842667    29.414263
O     19.773706    56.470547    31.659699
O     26.089916    53.744477    13.897170
O     18.500003    38.355860    47.681870
O     48.511269    36.167620     9.054983
O      9.098246    46.157874    18.807855
O      3.887590    24.038378    25.625481
O     11.128685    20.765086    35.587011
O      0.914004    43.192506    32.692950
O     22.353622    40.273949    39.132107
O     52.045301    18.290461    30.884278
O     21.436787    42.789506    39.088273
O     30.991873     5.505704     1.131821
O      8.222058    35.312973    33.198890
O     39.004029    55.599379    55.990434
O     46.863923    52.143904    53.782154
O     45.821453    39.535226    53.286706
O     22.753864    49.808674    37.660612
O     38.108085    38.338950     0.801074
O     47.045487    39.511145    55.589710
O     32.622910    20.401203    27.388172
O     32.215496    51.752134    14.590731
O     30.136699    11.942894    49.970000
O     32.932083     0.186995    41.955282
O     25.983964    33.413167    32.700906
O     42.042419    11.915679     2.404965
O     18.512566    46.986787    44.218726
O      2.627731    54.108392    52.793312
O     37.847700    20.134354    44.671450
O      3.894423    51.697316    40.167975
O     12.417478     1.685591    33.291683
O      8.624489    50.923576    14.682676
O     44.223429    41.476068    12.907036
O     52.335125    39.467682     4.683149
O     43.950466    41.906611    22.864763
O     55.064252    29.880686     3.624475
O     13.269892     8.472484    43.259965
O     55.734750    12.997731    39.107442
O     15.843578    50.311060    42.084680
O      3.489762     8.412038    41.335144
O     42.057317    49.866117    43.059465
O      3.890394     0.326602     0.396792
O     24.396096    50.890564    23.149549
O     27.165883    12.039763    27.854131
O     10.186099    38.953609    17.648669
O     53.402388     8.617420    33.788192
O     20.130415    42.892052    54.300076
O     23.764271     5.630532    28.738615
O     40.912281     2.532920     6.170981
O     51.551443    34.067435    13.034444
O     35.420133    43.577837    13.894288
O     51.438684    19.326026    33.237788
O     49.820891    24.005330    30.781560
O     44.569100    18.168711    49.491801
O     23.268437    45.769792    28.626797
O      9.452627    18.572172    12.383919
O     40.394303     4.899893    49.941005
O      4.726637    40.084376    53.799283
O     54.570171    40.123166    20.995916
O     14.249290    12.054477     3.057457
O     47.792360     4.755449     4.367202
O     31.157181     3.244145    45.531378
O     41.106249    46.459163    47.363298
O     41.738258    39.119308    52.739602
O      4.759792    36.836674    30.401738
O     42.967661    46.902332    53.023004
O     21.973310    10.966122    20.157160
O      3.527940    35.600094    18.869965
O     55.004828    22.296636    13.909155
O     26.555994     1.163879    26.849436
O     19.683770    55.129855    55.529879
O     49.852898    52.211179    16.211440
O     52.886750    54.469286    22.547280
O     10.100185    25.199468    40.839889
O     30.249508    35.167196     4.412330
O     18.456688    33.294658     2.022079
O     32.077644    30.445177    27.075573
O     19.789455    38.047688    18.605835
O     32.319484    30.863390    46.956797
O      9.080501    22.114306    12.627063
O     46.414575    29.298082     7.438686
O     49.449277    14.994111    39.144364
O     24.769148    40.363427     3.304440
O     24.793289    18.505958    18.158322
O     10.891963    13.700834     1.313060
O     48.614701    35.313558     1.585970
O     32.593434    37.719135    13.215275
O     19.712720    33.146497    33.317268
O      7.444643     6.108572    50.063545
O     17.633903    14.122494    40.896394
O     44.343853    47.772135    16.067513
O     27.990937    14.006322    16.802413
O     22.014900     5.922426    52.591682
O     13.552839    44.960226    29.889584
O     14.770913    49.330844     5.331875
O      4.998747    48.437975    33.930289
O      1.954731    53.257806    39.453630
O     20.849868    55.182247    35.622413
O     30.374009    49.003254    20.975755
O     45.034851    11.972499     0.092762
O      9.340609    30.108090    35.177682
O     48.625347     0.276801    18.487640
O      1.503157     6.178495    32.201212
O      4.172491    18.421324    20.468014
O      2.216335     9.724041    18.125737
O     34.385511    55.885833    20.261351
O     13.153118    41.891376    23.421783
O     43.746264     2.929597    30.838241
O     30.626063    24.383964     7.927453
O     27.092385    25.184392    24.771850
O      9.812312    33.372801     7.687166
O     39.299253    53.854522     2.885261
O      6.041628    40.867541    25.991001
O     12.066863    37.460411     1.102683
O     51.862836    25.506093    54.700712
O     44.702588     1.839044    44.068547
O     24.282861     5.014739    44.240137
O     15.481204    48.138532    21.628072
O     15.801077    22.542332    18.344831
O     36.081466    55.940410     8.088075
O     15.706610    22.080810    44.372168
O     21.271480    54.795438    15.925879
O      8.201053    26.975760     9.335287
O     43.942008    15.327343    40.059959
O      9.101583     8.661763    10.309888
O     56.485917     9.953627     8.960052
O     19.542199    56.477106    25.739019
O     41.506971     6.446069    27.939318
O     46.134740     9.381352     4.521181
O     13.968579    20.102258    44.003926
O     13.390613    39.059215    19.630879
O     13.668831    13.807413    54.903947
O     55.705643    24.203767    55.433327
O     30.849825    14.689967    13.849479
O     48.137836    38.873805    23.140414
O     44.884512    52.822906    56.540034
O     14.044428    23.171939    32.714719
O     32.102032    18.916283    44.003155
O     40.601902    42.219532     5.231521
O     48.774028    24.673742    49.681115
O     20.992273    19.046706    56.171360
O     41.222688    46.424810    56.458329
O     36.745444    33.882116    26.252500
O     32.689965    25.579633    27.582108
O     12.765123    28.957885     1.575692
O      4.533348    52.872961    20.362620
O     38.707598    24.965142    56.540991
O     47.091299    17.214775    27.671431
O     46.841728     9.421323    24.024398
O     22.720130     4.344771     6.155861
O     36.932451    37.424678    54.180311
O     50.833016    56.441445    11.618991
O     19.594914    29.431933    41.261889
O     47.837457    48.227890    13.852026
O     56.289045    41.350614    52.591046
O      8.319524    11.319417    33.923375
O     38.776807    26.522726    43.124101
O     44.093728     5.729676    41.494681
O     39.604931    39.065144    34.596077
O     30.263174    35.916274    54.820474
O     12.708649     2.995357    31.019628
O     27.265365    31.761799    35.134478
O     51.938641    35.856989    28.242582
O     49.860374    33.976327    11.045751
O     36.790710    16.367483    39.448354
O     18.538716    19.500835     0.401086
O     43.987076     1.405288    53.782576
O     49.031629     7.249576    37.253842
O     48.029407     7.905424     3.216867
O      5.597444     4.881859     9.815658
O     16.660760    53.180856     9.673432
O     35.793001    26.962172    13.323484
O     23.789039    12.435901     1.419690
O      7.412552     3.529967    28.869057
O     36.924067    42.565070    35.366514
O     20.345971    20.489065    37.455246
O      9.447984    25.492947    43.398976
O     30.210488    13.319620    45.711059
O     42.349003    27.136376    13.338200
O     20.656905     5.075992     7.619091
O     10.761426     6.676324    54.578383
O     16.737775    38.618560    43.515192
O     26.322983    38.772432     9.694649
O     39.131989    28.657609    34.083384
O      3.586568    39.026708    55.894957
O     56.025427    53.480479    50.202759
O     11.083002    51.170258     2.479171
O     25.352671     0.291191    21.505817
O     18.647057    21.094709    32.016819
O     34.720592    42.302358    51.331772
O      7.655455     7.593681    15.022659
O      4.512007     7.119824     1.413221
O     31.959815    10.972592    29.273173
O      0.275458    47.948716    25.921493
O      9.870602    16.406985    41.064572
O     36.672629    43.625055    26.745456
O     56.134163    13.863686    11.471297
O     49.398392    50.323995    29.081562
O     55.280691     1.892122     3.675528
O     15.925486     3.258636    24.579779
O     43.032653    46.120711     9.202372
O     29.902999    16.352894     1.625734
O      8.260382     4.556624    32.712311
O     30.506792    38.855440    26.013067
O     26.047187    40.785169    32.565027
O     48.707992    54.347946    24.829919
O     20.603699    49.902411     2.069767
O     19.462198    10.109954     7.466654
O     56.471641    26.270079     7.153433
O     24.698560     0.735724    30.966079
O     56.455185    54.718004    40.152046
O     10.838942     6.348216    18.632508
O     41.947274    28.712494    45.644438
O      2.109650    14.013421    10.518678
O     24.553892    54.902539    31.735350
O      2.150049    33.010533    21.021490
O     17.145635     7.797501    23.410121
O     29.036724    30.007489    35.917672
O     38.145355     7.620390    25.075672
O     21.198533     7.853657     5.552476
O     13.578119     3.796867     1.376822
O     39.334708    51.652921    14.802282
O     38.063798    52.464723    25.049258
O      0.429460     4.887522     0.132697
O     54.683061     4.111245     6.058127
O     40.736037    15.629782    51.759230
O     37.066517    43.512536    38.947410
O     55.892878    23.565322     7.032856
O     39.336234    43.201139     9.403963
O     32.914027     7.936293    10.586563
O      5.185004    28.829922    40.302006
O     40.278791    55.815782    16.830292
O     19.536294    40.881276    27.062457
O     50.045883    33.889141    33.616280
O     13.874870    45.312822    42.233405
O     45.566519    11.494586    53.676483
O     47.262107    29.364365    37.789544
O     54.336389    31.448286    32.000325
O     40.317938    21.955863    37.730088
O     11.810584    35.185866     0.141277
O     55.352469    18.871215     5.443680
O     14.857732    38.419189     6.262036
O     20.664591     4.145850    10.004950
O     45.475544     4.206895    43.065955
O      6.104652    17.120836    10.197672
O     36.454796    27.470819    54.536658
O      7.756488    53.725508     4.239217
O     26.384467    28.009984     9.235151
O     44.012070    24.218788    32.208270
O     16.813480    48.391575    17.946530
O     41.316918    17.404078    56.390405
O     25.169821    53.778327     6.721884
O     47.167457    32.680263     7.926998
O     22.950602    50.267988     6.492489
O     31.453456    42.596728     5.982859
O     19.276610    14.574448     0.927060
O     26.034714    25.989313     7.584653
O     12.044202    56.594337    39.480335
O     15.103363    30.946701     4.025609
O     51.160108    52.654719    32.851662
O     15.563532    52.620627    54.253626
O     37.493615    34.116952    32.427216
O     21.399472    35.256898    24.549381
O     45.562411     3.773304    45.569616
O     12.206206    53.351955    11.944218
O     20.750975    43.424017    15.352437
O     49.610724    28.586622    43.237843
O     25.077120    11.012255    14.017907
O     16.727645    46.014923    10.070801
O     45.742183    42.245380    52.517486
O     34.295972    24.094977    30.009435
O     36.431811    48.786344    19.382564
O     30.862006    27.988705     4.472577
O     29.060344    43.809448    53.187925
O      8.758611     0.783053     1.780265
O     16.654634    26.486168     6.044560
O      4.739576    19.597443    46.095681
O     54.877976    33.014180    48.656645
O     17.961010    38.039456    27.385904
O      1.551655    46.246714     5.100016
O     11.180992    44.724255    32.235276
O      4.114367     0.576029    43.583288
O     36.369648    45.580778    15.214736
O      3.624959     9.825865    55.012387
O     21.581693    26.405169     0.993869
O     22.692865    41.635352    31.094152
O     42.921512    42.986215    35.484933
O      3.540727    25.944483    10.469003
O     24.427356     9.946743    33.890685
O      0.821135    13.403574    55.635931
O     29.746282    43.774020     7.727039
O      4.169336    20.332428     0.927349
O     41.194912    34.409508     7.166761
O     34.404932    55.228051    47.955280
O      0.278774    28.309197    56.008150
O     43.772798    27.049298    26.436037
O     17.152931    52.641456    16.189918
O     45.165987    15.687283    28.559226
O      3.274230    12.574161    12.816813
O      3.489168    47.245686    42.339852
O      1.413235    15.724425    39.195484
O     51.052083    43.176274    29.635590
O     33.067597    26.225781    16.418456
O     37.999730     5.307766    53.996588
O     40.506287    29.806080     9.577206
O     37.408964     1.216069    48.918384
O      8.753952    31.500232    15.248196
O     50.672137    14.468790     9.795530
O     33.709887    38.045190    51.844881
O     21.444628    37.339652    33.164114
O     43.557511    22.140341    26.252842
O     40.330709    12.038499     0.431200
O     45.058382    32.290426     9.747739
O     36.969073    30.670427    38.448534
O      9.640113    42.342676     0.608451
O     12.488823     6.243951     7.989560
O     41.127798    53.301934     1.048662
O     54.474633    39.799660    51.761753
O      4.512122    32.355495    16.212899
O     53.341718    44.100600    25.246179
O     36.270092    39.318334    19.701931
O     18.503471    31.854630     7.047235
O     42.078924    38.473592    48.605118
O     51.462997    45.793250    45.714301
O     46.517992    48.258458    29.050627
O      0.351334    46.494368    13.237001
O      3.381400    24.457132    38.285821
O     52.702900    26.540244    36.832902
O      5.334066     2.123568    22.903410
O     40.412193    26.917052    37.158472
O     48.461797    39.064102    29.903307
O     52.656074    56.311337    31.898863
O      4.919774    17.293641    44.854012
O     31.970756    48.167009    47.867364
O     52.927024     7.039487    53.896799
O     23.506721    12.865208    15.288413
O     13.738701    23.732168    14.237818
O      8.754255    23.595933    22.866279
O     53.148499     0.192433    23.616719
O     28.522032    54.394116    46.525068
O     53.151794    22.965245    20.103954
O     48.212768    33.129324     2.758877
O     44.416915    35.053514    54.405296
O     48.493342    22.102522    32.193820
O      7.546645    19.676753    32.222640
O     55.876882    14.780500    29.339829
O     18.557483    39.582137    36.426838
O     21.394299    13.897686    47.977621
O     32.718904    30.828263    16.525986
O     14.316671    14.689560    29.323791
O      2.836720    38.550940    25.907265
O     21.789140     0.492795     3.051863
O     35.646905    21.715158    20.277983
O     16.084197    29.552245    12.931696
O     11.688488     2.533209    14.142395
O     44.502616    54.737014    18.513536
O     15.945013    35.744587    20.277952
O     47.620127    36.141950    17.825405
O     31.315803    25.814353    33.548225
O     42.448061    36.764860     1.690288
O     47.359063    22.663832    47.855624
O     42.242485    26.259251     8.383038
O     22.787594    48.837648    40.011540
O     53.486885    29.652502    49.289361
O     49.898976    38.814624    50.283475
O     21.934093     0.396492    48.140201
O     23.628706     0.591603    41.761747
O     53.401254    27.232733    19.070868
O      6.466408    12.647563    26.585809
O     34.356046    29.908164    52.312816
O     32.248547    11.126848    48.846607
O     44.240496    11.261931    26.611423
O     35.392520    11.109846    55.882842
O     28.464270    34.069822    48.587105
O     49.726105     6.569606     1.503689
O     17.154724     2.021801    35.862840
O     21.031495    34.914841    37.980644
O     25.483702    33.596416    35.848973
O     54.290149     2.146656    22.339676
O     24.823146    49.649877     4.766498
O     42.763117    20.210278     7.070164
O     27.944351    36.370540    22.500058
O     10.480923    23.463338    18.286111
O     10.195718    29.079339     9.170239
O     53.492960    23.910737    26.051930
O     12.590708    16.157418    51.372165
O     17.816016     0.445653    41.820366
O      1.675667    13.192082    39.264468
O     51.508774    54.208970    12.798065
O     52.421983    28.154952    14.277625
O     21.564901     9.839528    37.031279
O     11.354423    49.901304    44.368580
O     42.005319    38.833851    27.352540
O      3.639929    38.842885    28.321622
O      9.936911    42.121528    36.366887
O     49.391339    54.550209    19.573218
O     21.321647    30.053486    14.284273
O      7.663343    47.210673    40.382791
O     26.356109    55.008323    48.764783
O      6.652120    30.403787    16.133869
O      0.930415    21.998574     9.261165
O     48.512158    29.429633    11.968024
O     41.206356    54.881289    42.240170
O     17.349060    47.283656    28.703237
O     23.894388    50.214954    49.118241
O     48.999899    40.789653     5.838029
O     27.208926    41.354700    37.497396
O     30.986982    35.715252    33.072547
O     35.143839    23.082348     8.386908
O     27.750511    49.120584    23.903574
O     41.077573     1.809375    15.293502
O      0.361889     8.344122    28.447356
O     40.522246    55.992812    45.202536
O     34.657840    44.346377    52.934727
O      8.609088    54.902762    21.573174
O     19.224677    41.578147    23.374994
O     41.378904    15.257911    40.781195
O     32.104422    52.880156    12.212835
O     45.318610    50.428153    24.689496
O     44.700568    29.317008    37.203732
O     39.951966    38.181171    50.167779
O      2.973048    11.490381    45.399661
O     12.747493    35.579285    23.227243
O     47.166850    54.404380    52.468624
O     39.701676    54.671219    27.390761
O     20.599874    39.116713    46.263054
O     29.976498    49.356251    11.130447
O     36.327677     0.449434    43.799788
O     35.682968    20.723891     9.571548
O     32.776013    28.437206    17.814736
O     26.810783    22.971934    18.298891
O      6.666882    26.675183    34.261706
O     31.511373    17.505499    37.461948
O     25.720324    15.699656    12.596664
O     49.576907     4.338429    16.478827
O     16.251174    41.527687    19.293725
O     16.947026    48.108116     8.440614
O     24.733716    17.162691    10.757360
O     33.844544    52.736434    37.130062
O     23.932750    44.651006    40.413512
O     47.937552     2.918692     8.782705
O     14.797852    20.264957    52.574939
O     36.743556    36.618323    11.712131
O     52.009745     4.842798    25.624962
O     36.656467    45.561316    12.528952
O     50.354675    49.622330    47.287572
O     11.418375    15.644411    38.983415
O     33.511859     1.447848    18.917799
O     46.433950    42.781718    10.571722
O      2.695986    43.524999    24.142133
O      4.291510    14.943546    30.706097
O     43.308604    20.193259    30.968621
O     44.262918    15.631542    32.905433
O     24.073999    29.682904    46.338870
O     14.549945    12.763493    20.315777
O     36.514561    31.862072    33.263891
O     11.920825     8.240937    32.230875
O     18.227896     1.865441    27.092240
O     14.876851     9.963916    14.002997
O     16.915037    15.743381    26.233731
O     10.835119    40.973110    41.910097
O      2.303590    50.643290    50.818693
O     36.183422    27.048116     0.466933
O     51.924202    15.843519    38.879717
O      0.509186    35.943881    38.415388
O     18.323429     8.833765    14.396403
O     43.305166    42.095985    47.749075
O      3.508787    28.112130    45.236909
O     16.471978     1.211041    16.384741
O     54.145311    53.403378    45.732737
O     44.112186    35.323665    41.477321
O     15.981601    19.968218     0.016500
O      6.852561    40.372853    55.346426
O      3.741390    52.543915    31.160601
O     54.527489     0.239289     5.686875
O     55.290924    15.662602     7.134614
O     24.027281    39.729451    42.659807
O     32.579213     1.488512    51.550976
O     24.081892    15.479350    19.650706
O     46.154035     2.641762    52.796042
O     12.002943    56.471281    53.910920
O     44.253944    16.878243     3.497518
O     10.680812    10.119323    33.702222
O     47.102830    33.979893    22.492393
O     23.861805    38.194777    26.532910
O     50.186456    46.854510    34.292757
O     27.577684    12.283648    23.857162
O     41.702363    24.767679     4.949783
O     22.819725    46.386683    35.757867
O      4.980704     1.287006    46.304923
O     10.322282    28.895453    16.827266
O     35.232098    31.194808    15.826244
O      6.818350    40.078978    35.542930
O     17.707966    46.327812     0.299990
O     17.307516    34.533619    41.652595
O     20.526423    44.356836     2.959165
O     13.077384    50.098643    52.611871
O      3.799806    39.828932     7.907837
O     44.150834    46.181742    39.213688
O     27.069484    10.108161    45.901956
O      5.282532    18.811494    33.290872
O     13.452502    54.287329    54.114663
O     41.123765    40.980648    16.861831
O     28.920094    53.290864    31.919591
O     40.971605    26.817199     3.187068
O     38.267383     5.924930    48.722535
O     40.004953     7.050151    47.130506
O     32.101649    15.121557    33.088290
O     17.653972    36.593970    39.995504
O     15.419736     1.318841    42.328360
O      0.118152    12.596051    51.125566
O     49.315513    17.576799    54.060605
O     21.060326    17.475374    42.636125
O     52.548392    34.523153    34.561356
O      4.098381    21.931664    22.034835
O     49.376328    17.853974    20.075391
O     53.268012    21.225378     2.392570
O     38.550728    54.076012    15.714316
O     21.440558    24.287461    34.696435
O     12.248335    21.307433    32.468351
O      4.194525    10.993623    33.340712
O     21.569970    40.964499    15.010162
O      6.468178    34.095840    41.388218
O     53.368150    41.286248    46.513500
O     37.244827    19.938000    27.431742
O     20.085445    44.582698     5.410964
O     21.678251    14.705156    36.256150
O     49.169010    15.024949    15.939925
O     22.031539    52.716165    26.469613
O     15.953706     3.110977    31.669862
O     11.821233     4.023271     9.272141
O     19.640761    26.121068    26.927246
O     44.737835     7.545499    44.914379
O      6.544514    41.246863    40.119288
O     50.867880    40.805294    16.627464
O     41.963249    40.011558    22.919150
O     53.664918    26.252164     3.156293
O     40.429311    11.152054    54.609346
O     33.046477    30.472373    41.612184
O      7.829830    28.664422    55.978955
O      9.502315    36.688025    10.996641
O     56.593892    45.347893     6.884135
O     54.705284    46.987083    24.578619
O     24.671977    53.542140    16.082416
O     53.849070    12.255067    15.071859
O     28.501384    40.920769    12.535896
O      0.260064     3.186977     2.063925
O     23.376539    53.009281    41.650935
O      9.922130    27.995418     2.875619
O      3.436329     8.574720    52.734930
O      6.988954    16.598470    34.529438
O     27.246349    25.034970     1.887807
O      1.166231    34.454579    18.682789
O     39.569843    43.123462    44.698455
O     41.072860    39.560955     9.315035
O     50.136233    54.715048    37.037068
O      4.213043    26.046582    24.047562
O     12.641122    41.233970     9.957704
O     52.417384    44.073905    54.303842
O      2.368142    11.503818     0.091766
O     16.915404    24.022216    28.480988
O     29.678736    30.051385    19.818243
O     26.970301    49.761666    45.081545
O      2.133528    12.756333    52.825283
O     32.589177    25.868867    49.797453
O      1.588072    51.677693    24.148379
O     34.988870    33.853964    12.442393
O     54.053626    52.124479    29.372431
O     18.088643    34.235768    10.919845
O     41.532661     7.352250     8.015029
O     44.685917    53.528660    53.121215
O     25.997955    23.320571     7.371032
O     18.476936    17.389969    35.168948
O     51.657582    47.921590    39.029584
O      7.429207    25.750298    53.003294
O     14.549125    27.619606    13.931812
O     42.255080    49.904537    49.591742
O      9.834382    53.890505     5.767457
O     23.494581    16.457166    17.035513
O      1.953003    20.261533    30.112242
O     47.162403     3.454978    47.703917
O     47.677078    13.830851     6.032781
O     53.943190    43.910833    22.649783
O     30.148429    41.530187    43.440603
O     42.698760    18.400954    29.308394
O     44.901134    45.705055     6.625886
O     22.053818    34.669127    40.489331
O     24.558667    22.022020    48.531384
O      7.590700     1.994749    25.439066
O     11.329598    17.929889    10.542023
O     41.268466    27.855508     0.265090
O     19.021442    53.805864     1.101912
O     35.797168    22.566711    36.027837
O     26.630856    25.465682    17.567270
O     37.525597    53.847956    31.337704
O     19.149106    15.697180     5.834259
O     55.487755    34.879749     8.062039
O     23.720357    54.185043    44.175515
O     40.781538    16.138596    19.780838
O     17.214753    20.845573     7.454904
O     27.698191     7.230007     4.622374
O     33.485936    23.536263    52.755509
O     26.769651    22.867743    28.688099
O      7.284787    50.817842    31.580856
O     13.939273     2.682811     7.224861
O     44.214395    45.758714    50.416802
O     33.841693    41.410397     1.808174
O      5.565251    14.588255    21.845445
O     13.296508     6.528151    27.770766
O     45.624332    21.197105     5.186200
O     54.570447    18.875410    23.897353
O     39.853007     9.062470    14.994111
O     50.063479    25.002884     3.028039
O     10.646967    14.635264    28.252425
O      5.348399    36.767590     1.911143
O     19.856181    13.337158    33.336300
O     56.353797    49.120045     1.261060
O     18.340155    32.018421    51.633803
O     45.258924    32.215606    30.700141
O      8.833518    20.713095    26.271678
O     44.461917    51.599252    40.477933
O     29.450663    22.966751    35.963794
O     37.641003    41.212234    25.877343
O     27.132318    37.377991    52.971722
O     37.237473    39.860618    29.078546
O     15.033953    46.799770     6.269390
O      5.158831    12.170345    24.292069
O     53.573314    30.580535    24.329512
O      9.038492    53.219720    47.034982
O     44.108600     7.827777    49.498962
O     17.664949     0.419534    12.547876
O     20.244212    15.918907    23.564897
O     22.596301    29.675713    18.521852
O     50.711372    19.449531    46.816107
O     41.489293    55.320525     2.665358
O     50.136858    38.053141    52.712475
O      3.425341    38.580865    35.027104
O     34.402555    11.878761    20.282441
O     50.791593     8.805091    14.216602
O     29.287682    10.863201    19.522228
O     20.676242    32.679751    39.286487
O     17.750229    23.524858    16.761793
O     30.946151    43.799747    40.009899
O     17.347013     7.172932    53.506810
O     26.460203    48.070780    14.794858
O     36.205171    43.852218    43.297698
O      8.102204    27.893314     5.404215
O     31.842181    22.695879    50.840634
O     12.263931    30.322357    28.242827
O     22.570995    50.440162     3.851725
O     12.990965    16.714177    21.908698
O     18.958784    18.615380    38.765331
O      9.082256     4.921164    38.319398
O     16.481675     2.410452    53.877943
O     49.765949     4.436642     0.063647
O     42.993098     7.787816    40.300716
O     48.810529    47.066031     9.082659
O     32.286750    39.517417    41.119577
O     16.943658    38.729369    38.695256
O     14.763421    41.171630    21.466826
O     43.710134    20.510465    18.724611
O     34.101401    42.641923    22.293707
O     55.577742    36.898743     6.405401
O     23.778145     9.505119    21.478373
O     22.502162    43.850636     6.160297
O     40.841990    13.824737    18.607619
O     35.267082     1.825765    14.628067
O     17.230303    50.634553    54.769943
O     54.561542    21.054922    47.250122
O     41.920267    55.995752    47.459070
O     41.419293     9.896323     7.350388
O     38.669624    22.714775     1.321925
O     27.413083    29.260295    34.096472
O     22.582416    48.310422    20.246176
O     45.794615    22.732317    36.494330
O     17.118122    14.266440     4.909234
O     20.924382    35.845336    55.271701
O     45.559806    47.922561    54.682847
O     50.983749    36.514761    17.115276
O     27.652718     2.121229    54.913702
O     26.067480    47.378466     4.257517
O     28.442248    50.177681    47.271004
O     31.022087    18.692208    16.944037
O     25.629909    55.662064    28.048732
O     16.662747     3.054236    19.822397
O      5.306697    50.208178    48.379219
O     55.344089     8.647875    44.465338
O      0.916691    19.770974     4.585756
O     11.325052     9.216313    38.720476
O     34.271803    10.408863    44.587037
O     19.414452    20.752756    54.890973
O      1.877466    41.077947     6.721747
O     51.905879    51.842060    27.768549
O     19.021733    28.451216     1.815604
O     45.285204    56.219301    16.483739
O      3.320418    38.421134    20.502928
O     41.854839    52.253142    10.948362
O      9.506777    34.580503    47.210111
O     34.090636    26.572446    37.009107
O     50.514168    34.358656    50.172581
O     44.894960    25.115184    36.351323
O     37.548183    35.006514    30.024635
O     48.195021     7.165008    10.133229
O      7.273227     8.236951    51.810963
O     12.217788    29.787134    21.515438
O     53.819512    41.611701     4.918924
O     10.812413    18.084778    17.314491
O     41.421564    24.106430     9.925855
O     30.876635    43.453181    49.353936
O     26.895902    41.344064    10.137428
O     12.370100    31.237716     3.974594
O     54.419586    24.181061    28.521855
O     44.681310    46.052705    24.472656
O     28.409278    38.378227    24.591723
O     22.825868    35.812733     2.373046
O     33.282367    49.811859     7.512798
O     18.311250    50.075014     7.340348
O     16.549868    47.904565    23.921940
O     31.518250    50.387812    34.011066
O     50.574636    27.778684    18.996307
O      4.929758    41.506785    36.871020
O      3.338663    17.903803    34.722869
O      5.899845     9.440037    19.814422
O     13.848325    26.203080    49.513796
O      1.472562    20.628553    24.540138
O     52.197014    14.696383    34.535263
O     51.610402     6.378363    56.046815
O     16.483240     2.004990    22.252105
O     31.762049    26.133880    36.085280
O     10.568198    30.303111    46.617813
O     32.839661     3.513582    22.145218
O     24.030700    18.855452     5.455507
O      7.705034    52.577456     9.927176
O     22.422107    35.041169    47.611064
O     48.343673     1.629913    33.165047
O      7.472879     0.507521    53.890980
O     21.433309    25.622495    46.692930
O     35.246775     2.085323    34.525330
O     51.011838    42.269591    49.470684
O      2.870995    20.473058    54.699583
O     53.966323    11.228824    47.831478
O     55.700133     6.167398    33.026003
O     23.081520    38.698745    49.004119
O     25.917062    32.239262     0.090354
O     43.692791    18.297723    17.209010
O      7.155901    34.154668    28.208541
O      7.314090    51.416705     5.402526
O     33.366610     9.296597    26.182048
O     29.180832    33.971680    14.022305
O     40.350808    48.347140    22.512791
O     47.347398    17.282777    12.449932
O     17.001037    27.938714    14.884289
O     41.870148     4.295984    38.024611
O     26.562507    52.716845    54.492026
O     39.459268     0.395414    22.742136
O      9.045165    15.564736    10.986991
O     17.992065     1.720588    10.270811
O      6.925279     1.326003     3.517812
O     44.243355    23.025341    51.335299
O     51.835072     3.731632    35.321068
O     13.886890    34.758313     9.142562
O     47.646079    22.487787    12.486752
O     56.515719    47.692938    42.177540
O     50.722995    11.749861    28.153881
O     15.894430     9.198493    54.721117
O     35.037152    56.566908    12.970717
O      6.874306    20.229408     0.730215
O     20.573690    23.604051    48.124506
O     36.568062    31.951345    13.274032
O      5.517475    41.513405    11.588847
O     16.505871     8.989383    49.677510
O     38.440676    41.384538    12.868587
O     38.950644    22.913134    28.752792
O      8.552884     1.500263    45.374460
O     42.770149     5.533515    49.031774
O      3.994027     9.661165     1.064946
O      6.194678    36.717299    44.518390
O      8.556239     6.719573    55.986572
O     19.196817    29.313364    52.000617
O     16.284011     6.722154     9.563853
O     15.529467    48.178728    10.678347
O     26.664000     0.147834     4.862386
O     32.657410    48.218553    45.337400
O     54.196405     4.430980    34.314713
O      4.195160    13.392587    54.463713
O     50.155334    55.650335    26.619914
O      5.567483    24.567003     7.254468
O     37.637991    23.322927    47.882796
O     15.892539     2.326352    49.974301
O     13.005213    54.299898    40.294522
O     37.506719    27.945221    49.572210
O      2.483704     8.088273    22.282963
O     37.848782    32.352765    53.370788
O      3.659335    43.804796    37.030056
O      6.791618     9.244570    11.588522
O     55.857658     0.889670    34.990027
O      4.253030    35.500427    41.898190
O     17.519010    38.416220    13.363599
O      7.327498    40.795086     9.998282
O     43.830499    23.245781    34.739798
O     27.993830    38.537912    16.208605
O      5.611446    46.418157    51.674915
O     25.514755     5.954679     8.676168
O      5.742498    33.863457    18.934229
O     47.792406    48.997049    33.768767
O     32.348722    15.178355    30.428883
O     32.899301    10.095559    37.932260
O     26.563246    12.873996    30.357579
O     46.804392    26.453908    22.176055
O     51.339875    44.733053    48.163242
O     53.833032    33.258720    41.613212
O     34.284398    52.706272    47.375547
O     30.097220    16.837692    18.566626
O     49.683139     2.968704     4.547392
O     28.641177     7.310550    38.214895
O     25.310067    39.716524     0.862103
O      9.049189    39.837173     0.112213
O     26.576513    55.193507    35.240928
O     56.058817    49.546252    35.257058
O     23.926524    30.149740    27.823671
O     52.910780    33.769536     7.826651
O     40.689649    22.564091    41.204714
O     29.102713     3.350927    43.952019
O      0.526267    15.277745    46.810646
O      1.440928    22.054445    22.271423
O     44.497155    40.058758    43.169943
O     39.002277    21.401906    13.575140
O     19.086234    22.748972    27.573757
O     36.979646    12.715132    13.913613
O     28.554878     4.221617    29.912456
O     14.660576    10.460335    26.242210
O     35.996536    46.820819    23.608269
O     51.557564     8.373195    38.849989
O     42.365338    19.112502    48.571063
O     23.235738     2.612780    48.141050
O      3.000692    27.691540    15.867422
O      1.561011    21.781492    43.667975
O     34.644911     3.854441    47.435334
O      8.258057    10.798910    26.537234
O     31.483497    27.425301    11.907039
O     27.312598    38.730853    21.262780
O     35.128195    48.798577    31.085839
O     13.031701    38.186620    17.232860
O     50.358487    13.753101    21.236318
O      5.349234    55.257040    19.657580
O     10.472239    34.776908    34.461161
O     17.404595    10.189559    41.333945
O     50.833228    36.294228     7.903519
O     34.961678    44.199935    35.748038
O     27.605647    30.090429    10.234209
O     12.774478     6.339964    25.077388
O     47.841085    12.729328    54.619971
O     56.004179     4.914418    16.958720
O     54.183254     1.689200    36.900428
O     24.293176     6.275151    13.292490
O      5.841201    10.486245    50.316289
O     40.654563    34.347541    13.565190
O     18.449477    14.711365    45.617569
O     17.761315    24.575661    26.089566
O     32.706351    23.188838     9.269004
O     31.791389    38.898292    28.364742
O     18.493155    44.107138    32.676718
O     55.150260     3.304808    38.812293
O      9.915199    10.661682    41.793125
O     45.844826    38.531552    24.415581
O     43.302535    33.548691    31.777605
O     19.434890    53.492868    17.313780
O     19.017777    44.950534    49.581271
O     12.494393    47.182531    28.910148
O     36.793391    43.884175    51.392357
O     46.751979    40.591120    28.558416
O     44.070762    23.760626    44.946481
O     41.692565    42.700793    40.051009
O     53.611854    10.687948     0.259920
O     20.387086     0.789736    54.610010
O     51.066872    39.523656    18.854872
O      3.954730    36.378262     6.269442
O     38.115104     3.551533     4.342423
O      8.790545    41.221399    38.569642
O     24.035673     6.064711    50.967592
O     53.214432    42.805986    32.136907
O     42.007969    12.918801    16.406301
O     38.925138    11.053256    41.333378
O     56.388770    48.986753    12.431738
O     22.836598    37.522806     4.502781
O      8.222280    40.301846    50.150897
O     17.852766    39.715186    33.909852
O      1.881008    20.755232     2.473706
O     36.356617    32.197361     2.366767
O     44.814999     5.029328    23.843619
O     26.735572    22.466050    20.891498
O      1.945585    49.714846    36.073937
O     50.362964    37.851174    27.577692
O     52.781712    15.217121     2.852123
O      0.671413    33.721837    44.117817
O      4.923878    21.150151    11.173681
O     17.356220    51.528900    49.325974
O     22.141667    24.669814    53.309796
O     13.536184    51.237873     3.773736
O     41.939020    11.183455    25.093804
O     42.914071    12.158850    10.574238
O     37.837594     3.022930    19.226980
O     21.912178     8.431418    19.701594
O     18.477178    52.870096     4.102240
O     10.887405    41.397151    47.393285
O      6.423292    46.834051    25.134967
O     27.784496    38.750030    50.984107
O     43.911500    40.213591    49.455828
O     22.297575    50.783879    33.192821
O      9.046896    13.936254    13.159753
O     45.082262    43.556880    24.609482
O     24.731642    45.370629    24.769017
O     37.855214    29.966153    15.798199
O      1.044095    30.186656    41.617269
O     39.962387    16.649119    12.187440
O     51.669866    35.296044    25.479881
O      4.396618    13.298371     5.687669
O     28.628868    41.186485    33.274188
O     22.965641    10.845836    56.100009
O     23.158282     2.007985    18.203143
O     46.741180    23.578887     4.868819
O     42.500891    52.751771    36.140644
O     53.512371    32.823990    21.615846
O     51.079598     6.872915    51.819062
O     16.961179     8.583298    37.042779
O     55.913216    55.742698    45.663727
O     37.659899    40.185975    10.587562
O     14.928023    33.909264    42.604260
O     51.616901    21.920039     4.394572
O     38.894116    47.814063     7.570814
O     25.208921    44.464688    14.026806
O     10.946571    15.722786    12.823033
O     35.900881    11.767580    46.075508
O      5.223125    11.718677    31.068905
O     29.161242    46.170698    24.933990
O     48.933066     7.674957    41.226806
O     42.054022    28.768077    30.721351
O     29.722616    48.344080     2.591282
O     26.641532    43.224405    12.056844
O     55.573151     8.285676    23.507551
O     54.484431     8.899712    12.671441
O     53.132018     4.817055    20.286188
O     27.023596    20.859868    26.842300
O      5.920875    35.370653    55.214141
O     10.088429    14.690065     8.706064
O     52.123407    36.812443     4.982487
O     42.674440    55.163745    33.182204
O     36.563175    50.060717    17.117825
O     21.181135    47.138923    44.922123
O     38.303502    40.900133     5.173275
O     26.224118    49.676223    30.050836
O     50.476802    42.179857     0.877955
O     11.409393    52.057223    34.480290
O     55.816018    34.730021    42.297850
O     41.781352    55.823004    23.057624
O     19.164909     4.502956    17.461755
O     13.194662    32.134178    21.306388
O     52.326207    30.008878     3.855972
O     53.494460    46.112362    13.531069
O     44.512265     0.338862    33.319853
O     10.980084    36.540399    48.114365
O     37.599950     7.660321    31.449653
O     19.335633    20.317217    21.330001
O     22.902300    34.022911    36.454380
O     11.840180     6.444971    10.464629
O     23.344613    33.605021    23.780079
O      0.524864     1.651834     9.920875
O      6.807437     4.420221    51.940921
O     53.477369    10.238000    43.519184
O     39.770615    54.195423    20.715372
O     55.048021    20.917876    39.528623
O     37.320394    31.255639    22.530972
O     10.640355    27.681027    25.654487
O     25.521403    20.943400    36.063051
O     40.606383    13.908455    36.892696
O     46.416223    32.522310    47.721260
O      1.111102    17.817488    49.659734
O     34.262307    10.609224     3.006338
O     28.350786    34.980520    56.436911
O     12.452478    42.646944    29.297383
O     29.381120    37.172480    46.581625
O     32.979437     1.109941    11.680086
O     30.718522     5.712507    37.472591
O     28.785344    34.729274     9.051261
O     44.835687    23.412410    39.711279
O     50.839267    41.089369    27.944128
O      9.636474    38.539988    13.926333
O     21.894266    55.015541    25.238398
O     17.244132    35.600173    15.583678
O     21.338611    12.840273     0.310038
O     15.794205    45.117629    14.970717
O     52.329473    25.848917    52.075338
O     43.112289     2.795879    10.767195
O     19.089439     5.617952    47.855817
O     20.837708     2.640561    50.926431
O     10.359034    36.403514    32.258916
O     28.483581    42.807761    48.675464
O     24.321938    23.953895    44.813039
O      9.052507    34.954264    38.965666
O     41.617907    21.237450    24.960996
O     33.062988    40.235441    47.233086
O     43.344477    10.661996    15.828320
O     44.566829    16.684975     9.794570
O     54.604680    47.698118    19.780665
O     38.356029    55.749372    46.665995
O     30.774501    25.648185    21.264589
O     55.752678     9.875037    42.237088
O     55.710869    21.251029    23.415553
O     31.517928     9.817355    18.879717
O     30.644898    39.606431    13.425097
O     19.323854     7.260178    21.973909
O     23.846828    21.937229     6.982875
O     29.230819    23.937811     3.217342
O     29.616552    33.616151    11.415970
O     29.953141    18.408862    48.885830
O     15.716588    47.465581     3.789605
O      7.988383    22.358327    18.778603
O     31.963710    42.870576    28.658592
O     47.907910    28.087470     4.589323
O     13.857322    41.889156    56.340379
O     19.651446    34.732411    31.066923
O      8.826826    47.662271    53.040664
O     15.951118     4.023290     0.064960
O      0.383474     2.795929    15.751558
O     35.158096    27.004973    21.179342
O     39.891789    54.641667    30.723663
O     44.453876     1.279009    21.402238
O     35.914382    15.188765    27.630669
O     24.131654    52.205896     4.983968
O      2.998851    18.873978    44.208309
O     44.262788     1.059359    35.960288
O     11.648299     9.858542    10.101964
O      9.262817    51.153971    33.342494
O     13.997534    19.778904    33.876786
O      0.871793    56.029444    12.055042
O     56.519009     6.278100    54.488317
O     55.502064    55.214750     7.569738
O     48.938617    35.705564    52.979765
O     50.742327    47.286670    36.743941
O      1.704882    10.284279    51.550955
O     51.866633     9.547614    47.904312
O     18.871279     2.195619    45.032311
O     10.399375    45.587117    29.133661
O      3.157085    26.682577    31.326626
O      4.278446    30.655791    56.453050
O     31.716593    53.485794    38.711116
O      8.642080    25.035887    38.622925
O     47.068854    45.287317    10.075981
O     19.425935    13.164946     5.366384
O      2.108433    21.815469     0.169571
O     10.207119    28.164554     6.730091
O     50.158371    47.033968    47.546796
O     47.654284    35.215083    32.854218
O     47.247959    28.145363    55.104307
O     25.079327    48.876158    16.743790
O     18.524108     9.349856    38.929431
O      6.249387    10.291561    38.468897
O     18.952739     1.748839    17.048902
O     29.244914    42.140371    40.852898
O     42.662031    41.859349    14.918360
O     41.677409    29.582218     3.021046
O     33.166793    54.602242    43.447622
O     53.114827    51.868772    43.846474
O     35.929942    55.707070     2.813339
O     56.090808    55.142039    17.881153
O     41.261331    27.428463    33.573561
O     27.146377    17.608716    47.970981
O     55.147930    22.131771    27.094666
O     18.292809     8.406579     9.024268
O     35.024074    53.398421     4.015698
O     46.063604     6.812450    42.786728
O     45.239392    26.222398    30.995576
O     49.341655    52.007872    40.264202
O     42.447388    15.763880     5.715846
O     55.216884    25.123376    34.366799
O     21.368447     0.685343    14.666283
O      7.888876    53.998084    23.925673
O     45.237570     3.202445    55.255852
O     49.832386    20.702491    44.453756
O     25.320170    45.883351     9.185139
O      3.178786    26.762776    33.828568
O     56.126760    56.012861     3.654586
O     10.482048    50.951466    19.174250
O     51.160735     1.218786     9.547593
O     38.855766    27.581007    16.252761
O     31.395698    26.659822    14.413962
O     27.231003    32.999830    50.657247
O      1.971791    13.256229    14.986582
O     21.371024    34.478357    28.945623
O     19.024529    50.870709    16.759696
O     53.008477    19.350082     9.444761
O     29.558067    14.812102    33.881930
O     42.523052    43.096548    29.032607
O     56.550005    27.407402    34.656586
O     30.374015    24.029476    38.258010
O     23.804023    27.414844    45.330484
O     19.161932    18.168566    52.091539
O     47.160435    11.376220     1.432845
O     39.186673    21.827727    20.470695
O     32.239463    24.070010    40.253493
O     17.225505    52.742956    56.248066
O     29.534346    28.536744    22.047278
O     14.102922    30.473709    23.343843
O     12.190328    26.838078     3.150900
O     46.766939    26.385080    19.665453
O     41.027972    30.267520    12.061964
O     40.524571    11.662816    39.440591
O     33.803745    11.786041    24.746537
O     24.340626    30.735060    30.357681
O     30.186998     6.411785    29.388577
O     48.425040    52.633155    46.923572
O     16.535121    12.782811     1.782019
O     44.786910    10.339809    10.096915
O     49.204018     9.064241     1.100592
O     39.469420    28.139563    44.986420
O     23.916515    53.147132    21.992478
O     34.036192    47.132727     8.619158
O     26.785171    42.622877    53.705413
O     24.097440     9.645629    18.957247
O     45.507441    21.669216    49.483778
O     19.965435    37.757004    44.159500
O      0.899280    22.410940    31.354620
O     34.827475    37.208291     7.218975
O     34.660894    31.003666    56.522655
O     22.832376    32.260099    28.793520
O     14.765469    30.207246     0.370227
O     53.269334    43.621656    37.571782
O     45.044771    16.634700    26.059962
O     27.099050    47.419925    17.454222
O     22.844978    56.385302    54.507248
O     28.951317    34.186511     2.288761
O     38.099017    55.023246    25.322376
O     20.244044    15.961476    13.785997
O     50.079638    49.839468    38.220436
O     16.731892    17.633655    39.708991
O      8.467362    53.170514    44.539360
O     12.329391    32.503675    41.841335
O      4.231522    21.183508    36.197990
O     24.553591    38.459710    18.427006
O     42.023661    24.167382    20.491201
O     20.226769    22.579964    20.163644
O      7.529731    28.645400    21.132109
O     38.325607    36.618174     7.856488
O      0.710749    32.196630    46.234305
O     10.442680    11.745994    24.336193
O      8.704401    19.251654    55.194270
O     31.776205    30.169388    21.511628
O     27.930119    26.535130    53.228278
O     31.267827    39.529244    19.733730
O      9.181336    15.823980    26.420304
O     22.587714    46.751012    41.579727
O      3.682015    51.018816     2.709853
O     50.179259    23.634147    22.923545
O      4.693313    21.021901    41.171875
O     55.331474    20.706010    52.712717
O     50.364312    18.157568    44.599055
O     18.741451    22.983711    49.843182
O     44.102159    55.603130    30.904864
O     12.389387    44.679366    40.048431
O     12.777770    26.960245    28.600687
O      8.415820    13.809062    45.135995
O     43.293564    42.113027    42.061838
O      0.574460     9.947154     2.911141
O     27.481176    24.368896     9.211509
O     16.833962    38.784169     8.813749
O      6.105107    53.591794     6.354055
O     54.909642    20.022626     7.793228
O      0.233578     5.241484     6.794827
O      6.536345     5.344153    38.893263
O     38.605328    34.017088     7.653881
O     18.342079    56.091365    38.859728
O      4.092446    46.536064    37.023966
O     16.589573     2.546271    29.113912
O     24.835133    42.381708    38.696545
O     22.602155    47.569875    47.168333
O     35.852048    39.624550     1.648053
O     12.226410    49.354906    20.322878
O     55.464656     6.232489    19.656826
O     48.155625    28.192679    52.606639
O     31.234783    16.469955    35.114991
O      5.446079    41.463349     3.300541
O     36.220752    35.139792     3.810678
O      4.122349    39.816485    13.012481
O     45.299820    10.036353    17.587194
O     46.396634    52.927699    45.166798
O     55.601466    14.921850    54.236507
O     13.698476    22.861022    11.663910
O     15.106986    54.180289    27.001112
O     52.037236     3.921273    32.813646
O     16.857665    50.155560    37.544261
O     26.353872    53.056729    27.258863
O     47.698507    46.914986    16.137551
O     19.329402    39.853003    52.256443
O     40.957338    18.966682    31.328808
O     12.050118    43.779835    10.069831
O      8.155115    13.440007     9.870373
O     10.709854     3.648279    32.588785
O     44.599952    33.167326    22.502972
O      3.139631    18.600359    31.836348
O     45.032444    24.244653    26.130430
O     19.732822    23.421750    36.561586
O     20.749691    10.906979    12.393506
O     22.232973    45.940427     4.550631
O     40.219896    29.763286     7.008395
O     49.661978     5.462450    32.821958
O      0.292384    27.145554    48.602639
O     31.587050    46.949062    15.951882
O     33.853403    24.434256    25.447376
O      2.969811    35.545346    52.317511
O     13.579930    12.285177    30.050876
O     38.930154     3.201209     1.845928
O     41.170247    41.539703    51.767609
O     11.020972    38.704225    36.061958
O     44.771877     3.826302    13.452386
O     13.723998    12.891917     5.429378
O     53.737930    53.466683    32.428612
O     51.200183    43.293941    39.953247
O     20.655887    18.750551    49.989138
O     22.172562     5.884199    38.899777
O     42.073142    32.666775    55.585610
O      3.580070     4.811620    31.108184
O     53.515738    49.512278    35.370681
O     27.017302     5.381244    17.629998
O     41.236058    26.730097    43.805985
O     15.345502    51.591946    11.235041
O     15.291158     6.251056    47.560761
O     33.711714    35.341122    19.553921
O     51.019793     8.846460    32.842807
O     28.220945    40.318433    19.351308
O      6.807338    24.183548    29.725020
O      7.187605    53.919322    27.565699
O     44.903937    41.388401    54.762317
O     22.154736     0.811562    35.634454
O     54.668795    31.852269    29.297150
O     22.147420    10.851868    39.555602
O     40.972699    41.700973    30.577711
O     17.704790     9.711954    53.017554
O     36.727017    10.082712    23.608741
O     55.432466     9.381196    35.250247
O     24.531941    43.486366    27.412213
O     22.011133    38.657177     6.754478
O     40.452374    20.316898    39.718108
O      0.964858    43.679055     5.130083
O     38.124196    40.813522    18.671188
O     16.384500    43.818390    23.840136
O     49.878820    28.985584    14.130096
O     10.907513    45.418212    14.392745
O     53.153490    33.837423     0.826785
O     13.481296    12.138447    50.655080
O     11.902908    31.704393    23.514701
O     35.329669    41.100371     9.738551
O     36.969320    44.605458     3.002885
O     17.891105    10.441184    48.055711
O     23.835491    43.242081     2.897891
O     52.304562    43.434877    20.474785
O     48.953306     5.791693    43.129870
O     10.234658    53.721192    37.681952
O     26.436919    32.205298    42.076916
O     44.993097    42.420313    28.001870
O      8.983710    22.182479     9.836766
O     11.022667    49.401724    34.560245
O     11.931684    26.378008    23.681134
O     16.225929    22.136658     2.867743
O     51.745815     7.501287     4.237589
O     43.892786     5.529910    38.934255
O     54.601385    43.148054    47.936891
O     56.307580    48.853311    44.459743
O     18.522991    52.102668    31.487805
O      8.412801    29.935865    45.186670
O     12.926764    21.327858    13.677532
O     20.597591    56.317930    23.270935
O     12.058411    48.226742    24.956985
O     45.689999    49.660433    39.469943
O     20.383951     7.012947     3.202789
O     13.350417    25.748097    21.416917
O     22.189605    17.702353    28.169955
O     30.700623    50.631183     3.176540
O     45.006815    10.940802    37.157139
O     39.275412    53.333189    46.932355
O      9.134866    51.832774    54.962433
O     48.437139    55.805281    34.156375
O     38.998076    23.912385    10.656705
O     44.505608     7.693021    10.469590
O     29.078959    25.022418    32.269234
O     41.443028    45.785908    27.898830
O     18.914991    31.540075    47.086013
O     47.494642    32.921397    10.484630
O      3.336017    29.237141    49.624829
O      2.110432     4.448794    16.698613
O     56.574530     7.450657     2.910502
O     12.027626    14.822509    30.513867
O      7.647691    24.597499     8.862102
O     28.359705    23.816573    16.353040
O     41.065663     4.455090    10.279524
O     15.647802    26.041247    56.436402
O     42.720350    47.082587    29.848319
O     28.756836    39.194345     8.944971
O     42.720165    18.277325     1.938452
O      3.353558    37.650618    43.123017
O     40.649556    36.229309    48.579907
O     27.615070    45.304690    19.030991
O     39.453520    18.834714     3.595296
O     30.671062    31.150397    54.649493
O     22.593176    31.895241    11.542067
O     14.878785    56.145716    45.119878
O     35.509209    48.076466    49.407355
O     55.684577    14.068493    41.628717
O     47.928544    50.578411    24.019079
O     14.825713    10.367584    41.172076
O     29.041734     5.197544    34.279246
O     55.623849    30.510394     9.435199
O     15.584243    24.614973     2.028851
O     56.498182    46.281789    20.891948
O     21.017776    13.046385    38.269587
O     46.692842    13.573067    44.374758
O     28.586398    33.778172    22.663146
O     47.375163    43.982072    37.563457
O     48.159748    30.124269     1.136068
O     52.076500    29.191044    39.570179
O     44.645308     4.303517     1.004237
O     25.140820    40.945857    55.057026
O     27.901254    41.689522     2.485986
O     38.497175    10.823526    21.967538
O     38.622827    25.787858    54.035566
O     19.575372    22.764854     6.846546
O     41.741986     5.433601    40.302348
O     31.890480    44.714928    18.335787
O      4.267535    51.159548    24.527577
O      3.572223    44.871909     2.497473
O      4.913571     3.057577    14.369027
O      2.346258    46.559024    21.746759
O     29.268069    25.138241    29.226694
O     29.004251    12.345435    33.268389
O     50.416430    49.609808    40.753253
O     28.098765    51.640018    30.110092
O     36.590107    41.065375    43.217541
O     37.587232    25.508279     4.425397
O      4.517109    14.258258    26.011100
O     53.334223    41.600076    10.149506
O     18.872282    50.938353    52.101469
O     33.318105    15.622263    27.860287
O      1.430515    36.390521     5.411460
O     36.735283    19.837874    14.227307
O      8.379134    14.105258    50.203830
O     37.279060    46.474546    46.997925
O     49.243566    37.604106    15.503692
O     12.700784    37.292988    21.370672
O     24.923847    34.207311    47.387625
O     40.297816    38.242498     7.023815
O     38.786641    20.920570    53.733289
O      0.136711    34.973919    33.847468
O     41.403035    50.018137    37.752695
O     53.157290     5.108466    29.042466
O     30.205972    12.342801    56.589943
O     17.820932    43.144558    40.451864
O     25.849536    21.109286    44.497713
O     20.273178    38.087206    13.345732
O      3.843995    32.228276    38.078962
O     11.688492    14.725340    20.699577
O     15.792590    16.516355     4.717852
O     21.147593    45.654109    14.110275
O      2.746370    30.061910    23.235085
O     54.616415    36.270537    34.448270
O     14.310377    36.478103    36.139646
O     14.469927    30.783759    42.398420
O     29.102817    50.732780    19.296043
O     43.115591    27.634719    55.068058
O     42.008023     6.688059    18.767668
O     10.778149    32.600094    20.302481
O     25.179762    10.263404    51.516393
O     33.118026    11.348765    54.414488
O     18.914954    54.854333    12.983018
O     23.375462    22.475785    29.490058
O     47.078584    27.078712     8.735710
O     36.701319     1.551842     3.349649
O     21.557450    14.053308     8.374632
O     24.358951    54.531199    12.004512
O     53.070868     1.780839    39.360719
O     15.096615    22.391388     0.569314
O     43.668477    40.127590    24.826868
O      7.698123     2.300330    21.714926
O     19.340980     0.556457     3.863745
O     37.475117    55.933198    36.020877
O     24.498969     8.873504    55.125868
O     49.224206    16.340875    10.907154
O     33.218726    15.714336    14.686838
O     46.295893    34.827692     9.281391
O     18.088834    48.735957    53.250714
O     28.905877    44.950892    49.847854
O      2.519120    21.685194    19.903142
O      2.049272    12.884478     6.876759
O     47.290751    48.496624    22.694818
O      5.312386    34.464896    38.136553
O     49.496032    52.761899     1.227587
O     40.929507    29.192609    41.270086
O     51.445964    29.526641     8.141955
O     16.335613    40.463474     6.796424
O     28.259119    49.421734    13.246860
O     16.505566     0.043473    48.935806
O     12.000229    27.507411    20.168752
O      6.609252    24.851598    23.901080
O     17.272540    39.217164     0.132429
O     40.052105    40.780014    38.878104
O     33.199839    22.973079    27.513796
O      6.826591    25.019886     5.065463
O      2.632270     8.741313    12.339374
O     51.755901    48.885245    33.497021
O     34.960765     8.784495    11.939961
O     10.225509    25.381579    12.516061
O      3.197477    15.269115    45.193736
O     39.368487    29.904600    50.015221
O     32.869961    32.483120    11.800925
O     28.195432    24.680911    41.926868
O     40.775531    40.502368    32.835447
O     15.869210    38.084990    48.059813
O     17.847125    25.570567    15.264825
O     46.171873     1.928854    34.437754
O     31.759023    27.305549    38.464843
O     41.685218    35.298560    11.250216
O     41.462452    14.511382    44.307178
O     46.190819    14.810189    14.719452
O     39.068372    45.076841    55.617469
O     38.305054    20.916300    47.030882
O     38.709902    19.948851    22.284392
O     14.287053    52.774989    29.064757
O     35.930954    32.478422    44.024146
O     13.650243     9.671235    29.799737
O     48.829899     4.203888     6.711106
O      3.724225    40.212316    44.194265
O     42.745353    45.533866     1.844610
O     33.690482    16.972465    36.057321
O     28.001760    50.438612     8.322651
O     46.426317    51.225430    33.330161
O      6.405048    35.484231    48.787241
O      1.007090    52.865655    15.752148
O     34.237653    11.930568    28.294290
O     22.906983     2.452502    15.676265
O      9.250373    18.208917    44.319182
O     14.865687     7.014671    41.409038
O     12.936352    43.087748    37.848705
O      1.608668    47.389908    30.076558
O     45.211448    13.778346     6.805248
O     33.446172    39.149447    30.464025
O     36.527082    16.650317    42.016152
O     52.136644    19.789974    40.271728
O     48.274304    34.919327    43.223204
O     26.281090    37.958359    37.984613
O     45.402436     2.652121     7.968920
O      3.433258    47.379131    55.140541
O     31.019008    49.022895    42.429484
O     33.447986    34.087548    51.581005
O     37.644547    18.818352    17.996546
O      3.059080    33.684261     0.049082
O     45.047893    47.140224    22.082264
O     29.996746    37.190083    12.616394
O     30.210481    32.022176    28.429323
O     20.500738     7.341365     0.601258
O     12.051325     0.969698    51.453566
O     38.568940    36.275586    43.458095
O     45.093484    24.603816    12.891388
O      8.384205    34.258772    10.725279
O     29.398587     0.096767    47.406372
O     39.959010     1.397343    49.615868
O     45.811730    18.891084    25.368293
O     51.746769    22.343720    18.000925
O      6.961111     4.358763    42.890443
O      6.490491    55.542077    16.248668
O     35.988836    36.565816    28.570662
O     43.580540    19.392783    46.099334
O     31.878961    10.157654    24.315970
O      3.927170    56.408124    48.131615
O     22.787009    43.383899    29.262508
O     36.838996    31.220947    10.750436
O     56.230026    21.144308    29.320856
O      5.548374    46.762492     3.061743
O     27.456948    51.305174    25.400150
O     21.044485    23.675912     8.827091
O     52.993589    11.101341    24.023103
O     19.936127    27.141467    48.260378
O     16.248248    26.873213    17.170072
O     28.580848    49.601240    51.357775
O      0.670332    12.767296    30.084395
O     26.046345    10.374452    29.617294
O     36.904858    14.880617    50.219857
O     52.615775    56.511746    44.185581
O     15.351933    55.171670    24.624961
O     49.558841    23.223289    25.522356
O     32.344142    44.311859    35.824689
O     55.149832    28.471938     7.825174
O     35.376290    34.984298    17.324619
O     32.045430    37.215727    19.062037
O      3.256904    49.434095     0.551966
O      2.041100    18.196801    39.240893
O     56.172937    52.680460     8.311989
O     10.666123    29.801794    49.140409
O     32.197599    16.910501     0.458312
O     47.305717     9.510732    14.242942
O      1.973731    17.435486     1.832790
O     56.407228    37.109928    13.006166
O     26.674266     0.535831    37.052847
O     11.724439    50.726512    32.345070
O     16.842955    15.161366    36.108572
O     31.093881    40.628706    34.389986
O     29.864500     5.022590     8.564975
O     52.457636    36.155696    54.415967
O     42.504740    54.227625    45.608152
O     39.240991     0.665866    10.310272
O     53.476030    36.855024    24.393579
O      9.570996     3.784617    25.612216
O     42.533832    54.452036    51.964795
O      0.862882    17.898454    22.461915
O     49.705073    31.602520    28.525038
O     22.737583    28.056745    25.880978
O      3.043811    36.146731    34.234159
O     41.810489    34.497265     0.688207
O      2.349662    30.063485     9.461666
O     15.816922    27.135159    39.646455
O     21.572310    34.179428    12.369005
O     51.864335    10.798369    39.805480
O     24.655899     5.526598    53.327139
O     46.761366    36.638534    22.644624
O     23.885848    14.937155    22.116046
O     47.556670    50.154100    37.604505
O     10.090347    48.733577     2.082256
O      5.964504    49.393393    25.567875
O     18.280654     3.395179    23.506688
O     32.583278    18.573207    23.300744
O     56.540237    34.662632    49.876748
O      3.289703    10.511133    23.124495
O     10.708728     1.391147    31.330954
O      4.724611    10.021936    10.032489
O     10.182050    12.167639    48.457694
O     19.531076    29.669936    56.106380
O     30.502537    53.260148    18.052038
O     14.933229    10.606727    35.567720
O     28.686468    25.743307    44.312037
O     42.317343     5.205278    34.275396
O     24.368860    12.294235    34.754993
O     36.140193    40.183144    34.670908
O     12.734337    10.605807    52.580257
O     46.057637    11.049725    45.774267
O     51.030749    45.498800    38.615293
O      5.409777    24.173311     3.138624
O     48.860350    30.017050    54.391724
O     26.288293    17.344962     5.456547
O     13.811999     2.445392     9.841694
O     17.376826    19.427943    22.872331
O     17.407170    20.588435    53.214942
O     27.988915     4.310170    13.135853
O     49.273545    17.400557    14.894240
O     56.498752    30.361411    16.234036
O      8.266098     8.726992     6.429789
O     31.492712    48.233125    38.385637
O      5.923208    19.788033    15.950449
O     16.073504    37.941323    15.509998
O     50.158536     4.553147    50.902420
O     53.165389    16.147540    29.949775
O     28.555335    14.224765     2.299500
O     25.536510    50.492913     9.089987
O     31.642943    46.021600     2.661433
O      0.219905     1.609511    46.058319
O     45.935241    40.159782    18.069582
O     42.820356     0.200632    10.810964
O     12.274662    46.637689    56.516340
O     12.417815    14.277768    14.440251
O     11.399243     1.757534    42.804606
O     19.519421     0.812913    36.012838
O     20.043014    21.123925    48.419384
O      6.539681    50.402821    34.748443
O     50.988634    13.199172    40.160683
O     33.611701    44.024996    24.442822
O     23.691209    29.584581     5.203809
O     12.899642    36.941335    32.094384
O     18.352653     3.658489     0.754129
O     18.501966    21.885227    41.379746
O     51.219697     5.750310    36.850232
O     35.154085     0.409206    10.361926
O     37.656068     8.264370     7.077775
O     12.759141     6.126414    42.485122
O     14.926737    47.219935    47.077177
O     35.847315    10.958795     5.010928
O     23.037468    44.725942    15.589389
O      4.800555    41.349191    46.336734
O     36.158636    35.092356     8.046979
O     33.375741     2.233232     5.969871
O      4.547626    10.826675    52.672126
O     19.189957     3.165638    34.901510
O     48.042726    30.861888    14.082912
O     16.037443     8.383160     5.519432
O     24.160123    34.389439    31.216390
O     40.859068    26.469120    46.453348
O     34.394195    12.980154     5.072235
O      7.696456    15.810336     8.658400
O      7.326090    34.992997     6.409663
O     39.509750    49.865342    43.776629
O     56.113100    34.579288    46.267275
O      7.300941    18.044527    51.083829
O      3.760900    14.727890    40.036719
O     24.393248    39.640976    34.189825
O     24.469410    39.415331     5.646303
O     52.092723    10.802259    54.727965
O     49.124180    35.600841    22.181427
O     52.593317    55.990960    27.672367
O     43.129639    49.473148    39.678048
O     12.362285    37.383367    51.556837
O     30.095629    36.869453    49.136795
O     30.920039    45.024197    31.793497
O     15.309869    45.584904    22.069955
O     13.588465    47.044678    20.432607
O     33.135612    26.415189    30.504779
O     33.066443    41.807533    55.019139
O     21.468448    23.244294    38.678367
O     25.745021     6.166213     6.092960
O     10.814863    47.167429    22.930434
O     27.222629    29.439054    37.735543
O      5.394661    33.288114     6.266868
O     19.045363    19.647309    34.089800
O     45.495195    40.532444    36.138729
O      2.264458     8.921519    38.902036
O     20.346751     4.824046    22.726957
O     25.671430    20.904463    22.655068
O     35.281334    37.707765    13.631299
O     12.601867    34.297047    35.934272
O     30.346612    53.008701    50.833385
O     53.366991    29.103234     9.762799
O     31.291559    19.422190    40.850135
O     46.067281    26.159807    11.000156
O     23.637000    47.814656     3.295680
O      8.367293    41.145583    42.947612
O     39.314759    53.869145    18.186506
O     35.004638    22.991026    13.238889
O      0.640796    23.262926    17.222235
O     30.688007     5.147374    19.671990
O     43.535143     5.223059     9.954226
O     37.514716    40.106584    54.247150
O     11.840750     9.775841    54.856831
O     37.537916    25.221386     7.026134
O      8.845602    20.336512     8.024144
O      5.500435    12.103511    36.712457
O     47.169516    25.348526    35.064064
O     55.430645    19.491937    21.566904
O     37.098194    16.338013    44.551043
O      7.780138    48.136767     7.866078
O     14.540432    17.668777    20.096069
O     18.636037    54.612592    34.297180
O     31.795130     6.987417    49.634755
O     40.208146    45.377663    36.391280
O     13.122767    26.630962    26.057400
O      5.246778     7.609744    29.812386
O     55.714993     9.950202     5.131703
O     15.475493    34.840810    54.910526
O      8.418224     3.032113    53.487227
O     17.548228    27.291390    25.694033
O     47.109761    49.524796    31.358339
O     38.344673    26.631951     9.157311
O     21.153315     5.193379    28.223293
O      8.028612     1.322380    34.176213
O     11.858103    49.226065    56.149697
O     35.648424    32.784103     4.768247
O     39.981273    39.645476    11.674805
O     12.147949    19.755204    23.613482
O     44.682596    29.627971    34.559781
O      0.340888    40.341846     2.835673
O     43.763020    32.725828    39.700686
O      3.945141    34.069480    29.613799
O     49.883526    20.944364    27.818986
O     28.593975    16.672102    20.732824
O     27.677546    28.254829    20.278503
O     29.807440    25.537538    12.598562
O     14.250858    35.845040    30.142880
O     11.314417    45.171159     5.437372
O     26.499678    45.733489    47.368854
O     48.857503     2.571840    29.658010
O      5.040529    10.632800    28.659196
O     43.571924    36.236068    46.434355
O     15.888200     7.443790    45.288927
O     56.142533     1.825056    49.828234
O     16.357282    16.760204    31.315255
O     33.608943     6.728166    42.950818
O     27.337787    11.254504    52.589056
O     40.169243    31.775831    42.321301
O     29.812639     9.684112     9.134025
O     31.017168    50.257614    36.744357
O     27.663779    10.036535    41.635797
O     12.245077    13.183430    52.869785
O     19.743377    43.467198    51.667677
O     40.613284    20.199578     5.521220
O     43.235694    35.124930    13.857816
O     43.848067    30.857269    19.792482
O     41.820799    26.920132    51.033368
O     38.641037     4.795474    36.606909
O     44.325660    14.221659    30.683813
O      8.724753    50.292068     9.258390
O     29.140888     0.203980     8.927761
O     26.897358     4.459481    53.953241
O     12.636192    48.721703     9.311729
O      5.674703     8.717877     6.871696
O     53.964177    47.006150    41.718978
O     25.828208    49.982026    47.453054
O     39.253631     1.441611    41.147917
O     12.395393    20.022901    26.236432
O     25.738874    44.801298    44.990220
O     21.630550    48.511299     8.125517
O     18.873392    37.392238    55.640751
O     16.750327     3.715851    42.374315
O     34.685216    15.700775    43.798176
O     45.208678    27.397441    47.792720
O     49.148337    24.561761     5.472931
O      0.767592    49.558966    38.455488
O     23.620463     2.860347    24.617546
O     29.455128    33.968291    16.600976
O      6.081360    14.475992    38.726186
O     25.532210    53.659249     0.172843
O     38.499028    36.092787     2.907715
O     44.754458    16.060751    35.976793
O     36.713794    47.817577    56.269325
O     35.775148     6.623965    33.049312
O      8.018545    34.937851    45.134241
O      9.217418    26.965029    34.021111
O     18.197112    25.600197    49.433928
O     56.162753     5.190318     4.272110
O     35.587850    19.081848    25.502860
O      0.835346    14.240147    43.936799
O     23.645372    13.392613    17.862765
O     25.369551    54.520981     4.155548
O      5.628586    27.477572     9.934458
O     24.969011    55.282611    46.355712
O     39.565401    45.943139     5.852717
O     53.362754    41.547865    16.116028
O      4.860177     5.879893    40.804641
O     39.862780    16.892743    49.487112
O     32.701084     7.961923    33.082889
O     43.570469    49.062619    13.962695
O     36.638181    50.298013    50.325209
O     46.026791    50.338540     6.524187
O      2.166920    12.196524    34.623635
O     39.471136    48.822769    39.030091
O      0.713452     9.976838    22.426072
O     27.636288    17.292319    35.192713
O     29.387017    14.892152    41.762879
O     44.172875    25.655916    20.038172
O     25.082836    39.005480    44.841937
O      6.799419    41.423585    48.270650
O     48.018647    31.668205    26.517132
O     27.714444    54.219936    21.648231
O     34.446444     1.532647    22.917494
O      8.698581    44.986396    15.896108
O     17.811793     2.866256    38.236821
O     39.012870    40.527351    50.796033
O      4.314459    55.287859    39.990150
O     50.104411    10.796610    30.472060
O     28.938972     2.701547     9.504833
O     55.597133    13.408491    20.105078
O     31.293671    52.987752    53.403937
O     15.522305    26.887137    53.948412
O      8.061259    42.705825    22.776090
O      6.588691     9.923371    15.291930
O     24.775793     0.516766    35.259359
O     24.250339    51.936415    13.927450
O     11.440802    40.896812    34.656661
O     23.023395    34.864422    10.344298
O     55.774556    37.074984    45.482796
O     51.526313    56.361589    38.871307
O     17.683570    49.014744    15.519241
O     16.756290    23.130594    40.030285
O     40.395655     9.430556     0.184117
O      8.213794    39.448870    26.004359
O     16.693263    43.106367    30.736673
O     15.393835    53.017185    23.112206
O     41.278050     1.899722    51.776828
O     53.466973    35.987251    41.929522
O      5.355561    52.594969     4.069596
O     34.658188    29.078078    27.389876
O     27.578718    43.569149    21.153908
O     31.813045     8.187294     8.259226
O     40.082292    46.204036    13.382477
O      1.159744    18.545675    10.351202
O     16.023351     5.083315    21.262678
O     15.269509    28.453892    31.275854
O     39.686641    38.770201    47.634431
O     31.713950    35.556638    47.695770
O     18.242130    11.897270    39.629486
O     18.434658     4.297335     3.222065
O     52.110377     6.505840    32.768637
O     43.245403    49.047322    54.425518
O     53.409835    51.949689    24.444382
O     22.586378    43.799231    34.220040
O     51.070968    28.457700    28.397327
O     23.772925    37.012835    16.388451
O     18.133975    44.005978    55.443394
O     36.442403    21.178330     7.001772
O     45.912350    18.571053     5.742474
O      6.740198     7.222103    10.084539
O     31.811098    43.624542    13.695586
O     42.081402     2.941206    49.513566
O     18.735087    52.597850     8.221602
O     15.852880    31.528603     7.510955
O     38.226036    24.900140    30.333132
O     17.063063    26.755715     1.882760
O     26.396339    23.014898    42.681557
O     38.535196    47.905497    27.489809
O     43.521267    48.209853     3.946669
O     16.129915    22.348250     9.292972
O     32.237189    48.189359    11.920189
O     13.596218     5.989507     5.545307
O     22.706333    54.557231    52.649736
O     12.780228    28.687356    24.535366
O     25.131850    44.990445     4.518926
O     26.074004    14.395986    18.622102
O     54.161255    52.881429     9.886302
O      6.501082    36.731144    37.381293
O     12.204283     2.430130    21.692454
O      5.327035    13.270341    29.055016
O     50.207225    20.901678    41.715289
O     35.519342    17.460643    18.959103
O     44.360364    16.631027    15.334318
O     38.807272    19.946604    15.836421
O     26.747665    24.560371    54.569213
O      7.371445    15.114326    17.303108
O      4.399849    34.475755    21.069475
O     31.361643    14.315876    50.133520
O     20.144655    25.734928    31.706941
O     14.351024    20.253281     2.988744
O     37.529554    12.521119    23.914014
O      6.227424    23.104854    34.415731
O      3.670836    34.027461    14.357604
O     21.848862    28.719695    20.932274
O      2.774355    49.339093    48.593643
O     30.735678    31.907420    13.164042
O     38.073127    20.604718     4.935971
O     25.459848    33.945154    43.839760
O     32.645747     0.249847    49.271657
O      6.615019    30.868024    12.287319
O     50.091414    32.478128    14.596008
O     53.176726    29.115371    36.469960
O     49.956006    21.290843     6.508168
O     17.890887    45.182502    22.108273
O     28.403389    56.240045    55.578203
O      7.815987    49.924410    47.841851
O     23.135871     0.009900    16.353779
O     17.224857    36.576612     7.313836
O     34.809887    32.303436    37.566371
O     55.218385     9.847674    55.048872
O     53.553503    23.337797    35.444233
O      7.411346    37.647406    34.407488
O      5.755917    27.187519    27.835231
O      4.215483    53.122250    47.579509
O     26.261279    20.906544     6.336886
O     17.006626    43.086370    47.709549
O     46.652307    52.634181    24.995068
O     46.781315     7.953855    48.863794
O     33.551070     3.035628    53.348891
O     38.054196    52.474615    50.456842
O     21.900215    50.409770    50.723620
O      3.032798    40.441282    30.310428
O     36.965294     1.658405    37.132595
O     16.641652     0.386820    20.186509
O     28.293736    14.453292    14.234266
O     20.306324    42.645590    34.084178
O      0.525605    49.758319    21.249226
O     42.712341    26.188223    30.827407
O     49.072964    47.735834    39.636846
O     18.608923     4.561318    13.151984
O     18.740322    16.574591    16.325889
O     39.531506    28.685755     1.865928
O     15.662009    48.833629    39.493256
O      6.675651    54.709573    11.121349
O      7.103077    18.362205     8.015314
O     50.698205    29.731352    23.715189
O      1.308949    34.150564     2.093464
O     52.662024     4.080636     7.826073
O     33.108852     7.497479    35.687796
O     21.689174    39.234884    11.556855
O     21.195985    22.423367    50.496288
O      7.975985    42.507515    11.887626
O     10.020231    25.535086     2.134783
O     16.673382    46.433837    26.326489
O     26.272785    47.344546    12.253850
O     38.505660    42.906256     6.906994
O     44.006296    56.433563    25.809545
O     21.735231    19.870134    42.714537
O     40.835468    51.503507    55.656882
O     11.816732    36.461970    36.982509
O     37.243636    14.404193     1.165407
O     34.550520    46.502179     0.355819
O     36.804147    25.711007    52.408519
O     53.842951    38.769077    46.331143
O      4.503819    24.641425    18.996277
O     30.133924    20.746463    11.087521
O      9.705925    13.457074    33.467056
O     41.012138    35.663865     3.622933
O      4.950127    18.129289    17.901498
O     49.670021    20.446045     9.165770
O     30.993329    26.364208    23.807324
O      8.606357    51.007090    17.310539
O     24.376274    23.287851    54.549088
O     25.715085    53.294477    42.832502
O     12.593770    53.332438     2.486541
O      0.884056    49.447765    55.380604
O     14.366720    51.742720     6.228003
O     41.152686    35.953096    44.808161
O     56.030891    52.237836    21.404062
O     39.562506    55.268312     8.690226
O     16.805621    13.193012    25.329687
O     24.532642    17.438464    29.274412
O     47.142143    25.845697    37.626341
O      0.064573    15.634489     2.031301
O     10.082989    20.675486    44.661907
O      0.453508     6.077284     9.281746
O     14.546043     5.015726    39.552690
O     18.903555    30.863473    14.814213
O     14.452508    55.153399    15.666687
O     17.971578    44.341637     3.667430
O     45.391504    10.956407    28.985538
O     55.767023    45.692863    18.329765
O     29.187043    39.223741    28.337384
O     42.462481    32.241620    14.088239
O      5.097467    28.276544    20.258616
O     20.825441    41.121489    41.188978
O     37.685448    53.237462    56.302142
O     22.865359    32.240809    54.169429
O      6.324843    38.363769    16.648813
O     43.828820     9.575111    33.072605
O     31.872848    18.201090     9.118036
O     56.294240    10.760821    32.262268
O     10.178618    12.716852    43.455188
O      1.805163    45.297930    54.819969
O      5.896175    40.930288    16.562754
O     35.122219    11.400177    38.844510
O      1.980179    44.245913     0.493235
O      7.150251     7.533171    36.467838
O     16.428241    24.533465    45.273281
O     20.291778    33.461973    35.850774
O     29.727021    44.898795    47.376054
O     38.472704     1.129763    44.876944
O     46.461836    47.798926     6.698250
O     26.863887     1.344090    39.629097
O     35.882406    53.784406     6.428254
O     18.382867    10.541156    50.690142
O     14.152211    32.028107    28.126496
O     36.204002     2.262368     5.832535
O      6.974480    46.395781     5.944791
O     34.845295    47.073504    36.617492
O      0.022813     5.562563    42.593268
O     25.186521    26.997520    16.136004
O     52.956343    49.493124    46.858696
O     11.248853    38.237059    30.456440
O     27.113846     2.707853     6.789347
O     27.145756     6.493190    52.335210
O     27.408786    45.050762    35.361117
O     51.556140    36.955492    14.555934
O      6.716461    12.741851    54.595853
O     48.490040    22.726005    36.732496
O     35.040726    17.686785    23.302159
O     56.525041     0.826587    22.725323
O     13.481645    41.496518    42.489601
O     19.874517    12.488000    45.299229
O     10.403267    56.371298    12.171418
O      5.883870    35.698116    10.281322
O     27.422106     5.956285    22.821894
O     45.703911    15.298010    17.166661
O      1.412439    36.719111    10.924429
O     10.155142    26.278383     4.717990
O     28.257206    23.654216    11.615966
O     39.798674     1.559757     0.128099
O     47.251873    54.032289     0.663872
O     19.528200    39.709202     6.875274
O      1.550772    36.593619    20.370121
O     12.245754    45.932990    49.473095
O     34.113653    50.902953    23.121463
O     47.707458     2.255430    27.361098
O     31.490979    27.893303     1.857143
O     42.256152    31.672805    37.771656
O     33.179935    31.062830    13.983415
O     16.293015    45.860460    43.200728
O     56.431235    33.019973     4.034472
O     35.561653     5.937495    25.507219
O      4.783649    39.455487    18.505075
O     33.789916    34.095646     3.573879
O     45.827788    27.472180    35.831524
O      4.058171    25.031012    40.691706
O     52.705732     6.005161     6.178011
O     22.379500     9.024707    11.711737
O     12.426925     7.114208    15.442277
O     54.176530    52.610463    26.825882
O     36.240991    16.721435     0.589364
O     48.695708    40.352170    18.147408
O     25.076920     1.623044    11.675021
O     19.676057    18.731124     9.675299
O     50.487003    39.684397     1.311231
O     34.204409    12.629885    47.970572
O     47.735524    39.070581     1.420485
O     32.884325    15.480197    39.419210
O     38.425177    47.079865    35.286035
O     45.864650    16.025747    38.311750
O      2.429362    41.476508    50.627026
O     56.500171    36.599167    29.537782
O     41.380266    10.898314     4.823316
O     40.481323    44.392750    11.448932
O     30.393586    10.239048    14.295959
O     34.526283    18.429865     9.717778
O     18.398249    23.560787     9.054821
O     25.912445    14.625016    55.946339
O     27.076842    15.163824     4.206227
O      5.012787     3.998390    27.456926
O      8.479990    16.441185    13.385311
O      9.243846     5.465923    43.316102
O     24.299867    51.330588    11.288884
O     20.095338    41.959331    31.602479
O      9.716525    38.488885    28.124684
O     42.887749    26.617968    24.041908
O     36.342446    42.346098    53.453919
O     51.324662    27.903705    35.013564
O     21.580785    34.802121    20.335646
O     34.760129    20.981868    34.283468
O     11.160929    22.864763    11.106016
O     18.417832    25.756176    44.142890
O     26.049441    19.396829    42.061202
O     33.081209    44.930122    15.925116
O     14.277831     5.911860    11.082457
O      6.473091     4.245043    54.628731
O     22.220668    22.159719    53.102400
O     47.535159    48.833748    43.934358
O     30.392575     1.027782    11.016162
O     50.881425    26.444891    23.889640
O      0.409059    54.348411    20.240615
O     56.559984     0.654696    41.298841
O     36.338910    23.823552     0.745287
O     21.853296    46.345610    11.695184
O     35.257085    29.098964    49.973735
O     15.128789    31.581557    18.074578
O     46.194300     8.689691    52.006002
O     51.707335     1.690025    21.915518
O      8.742519    50.508480     3.409290
O     17.151304    48.245063     5.844496
O      9.399502    10.412247    30.382445
O     19.184305    25.920035    24.282463
O     47.078046    42.480316     5.638692
O     13.464386    53.749468    17.727913
O     28.878666    14.162013    50.846114
O      7.485914    22.612908    38.605460
O     11.677434    55.625784    36.559734
O     48.891645    18.942865    48.531666
O      2.882006    23.993993    21.042860
O     29.244492    55.095187    16.639495
O     29.424166     6.779375     2.769801
O     55.983688    31.965660    40.634275
O     46.401288    38.723735    34.617013
O     40.294086     8.454243    17.946611
O     11.464728    48.660685    46.732724
O     38.828093    18.382246    46.496928
O     16.179003    17.857364    18.144150
O      0.442179     1.577712    55.873800
O     47.902728    41.998045    53.726674
O     50.131853    31.219549    43.423632
O     21.628092    17.811518    45.176106
O     49.531827    19.681428    55.546223
O     18.078608    49.931704    47.342661
O     17.152868    29.967387    10.567327
O     20.754610     3.617677    47.940471
O     20.768523    43.369642    22.159862
O      7.213902    52.302934    48.682097
O     41.247802    33.635139    39.144928
O     17.654156    24.477185    51.695960
O     36.380020    42.172881     1.842875
O     13.664464    44.541281     6.335283
O     41.094849    41.830510    10.806893
O     52.004622     7.363774    44.237462
O      7.308863    18.002907    36.713450
O     30.726347    41.134943    27.177617
O      5.442848    23.284465     9.578712
O     53.566432    31.483572     2.193000
O      9.677208    30.405336    52.255795
O     42.211701    38.169685    21.071986
O     16.133503    29.052440    18.671224
O     35.299533     4.690543    43.177882
O     30.174595    17.456089    39.687730
O     56.496283    19.967119    31.662712
O     26.690925    38.477717    29.491993
O     24.965621    35.556599     8.787769
O     24.912576    51.218966    33.631421
O     11.424408    39.822009    52.219264
O     38.985234    33.934768     4.058740
O     45.403945    37.491274    55.121255
O      3.338995    34.259709     4.831352
O      6.737175    30.811649    39.447108
O     40.484869     4.378786    15.457331
O      1.265020     9.193765    36.388601
O     30.348086    55.019615     7.448406
O     22.087211     6.785939    22.531132
O     35.897061     5.942885    19.110465
O     41.983305    41.897872    37.566388
O     48.550576    50.612482    42.277923
O     10.915289    45.382133    17.123111
O     16.828040    13.902981    20.562302
O     52.411285    42.721080    12.223794
O     54.548673    15.042987    21.909650
O     23.439326    39.915889    16.569317
O     43.595568    52.510259    47.380287
O     53.907531    23.657154    43.383795
O      7.684225    32.041332    26.737478
O     31.343767    39.043976    36.416110
O     47.174599     7.369219     0.840327
O     48.263267     0.454207    40.704369
O     44.616933    14.099893    54.933939
O     13.480529    41.438441    51.444050
O     50.114134    37.648376    47.930355
O     40.265809    31.747509     3.393533
O     53.668076     7.013382    24.971232
O     10.195681     7.907047    30.226882
O     46.903332    40.773820    31.146826
O      9.917147    13.200854    36.046266
O     40.749014    47.725971    18.364404
O      6.915848    15.202659    29.928139
O     20.776549    16.183307    46.966033
O     22.743706    15.780822    43.930112
O     52.904287    46.944555     4.294511
O     44.120648    52.240436    12.246573
O      2.186406     5.029774     2.142650
O     43.793072    14.974380    45.187350
O     15.247184    14.576845     3.067554
O      3.674599     0.715552    36.223617
O     24.633647    48.527000    21.839654
O     24.640744     2.757939    42.946923
O      6.911411    36.977690     8.161612
O      1.735660    25.443971    16.228609
O     22.878963    44.668546    37.718373
O     33.850344    41.195276    32.111788
O     37.432385    37.048577    38.267447
O     47.100858    17.115992    19.058812
O     23.826499    43.733110    54.209283
O     16.069639    44.569025     5.411176
O     11.769417     4.683770    26.832733
O     38.906948    38.530221    39.727139
O     44.083139    51.353271    26.894138
O     14.693834    46.183623     1.784465
O     32.809700    46.806556    35.025558
O     53.397784     7.353992    20.719614
O     49.889925    26.124242    52.928215
O     28.536944     7.133043    14.025312
O     21.954525    55.741445     5.287997
O     43.034951     4.307635    27.496018
O     30.451585    21.986286     8.832291
O     35.927439    53.721740    35.801701
O      4.865509    23.135386    50.257604
O     34.332481    43.850737    31.516505
O     54.959571    53.288876     6.034434
O     20.775769    40.756554    29.363779
O     40.324179    51.306995    53.055720
O     30.338282    54.401507    28.192322
O     35.414940     5.632629     0.731434
O     30.625789    53.987599    25.574685
O     17.076752    36.847972    22.416584
O     20.741237    17.264668    11.594202
O     40.031566    16.264177    54.224473
O      2.812597    24.005935    42.933434
O      7.476556    26.062242    31.881493
O      6.606224     7.413646     4.834685
O     38.552464    14.092366    35.334018
O     53.620078    47.436019    27.928251
O     10.475803    44.681993    26.665061
O     40.067289    40.071008    25.861544
O     55.730822    52.752686    42.646429
O     53.276269    35.698453    36.706474
O     10.532939    23.033638     2.587086
O     38.647535     5.566927    10.576221
O      5.066985     2.731400     4.783258
O     11.230549     4.492019    37.007795
O     53.133786    51.279983    33.649227
O      7.706066    11.249500    20.616099
O     50.278692     4.078090     8.948744
O     30.618329    45.601113    34.310634
O      1.641269     9.251322     5.154212
O     29.315394     4.065225    17.719036
O     19.852403    37.740650    35.277193
O     36.931480    32.139107    56.468602
O     49.694034    45.962022    23.252007
O     23.730758    18.603704    15.669074
O     30.796485    55.084413    31.814011
O     37.009856     1.006760    39.630545
O     14.680518    20.754300    27.125997
O      0.676048    23.070139    24.545229
O     19.690169     2.500116    31.763243
O     20.964796    54.597707    33.034994
O     43.892384     3.993008    53.145776
O     53.138536    51.112999    12.905447
O     33.651958    41.978071    12.763930
O     44.086987    34.667440    34.060762
O     10.149380    54.245828    35.084015
O     15.519408    46.351393    35.674836
O     26.788029    18.535104    19.969615
O     17.403904    43.273922    16.019120
O     20.329021    39.801523     3.834283
O     33.343773    56.031206    56.482371
O     14.626643    17.575530    50.541441
O     54.874458    32.295812    15.419130
O     18.354839    42.346110    49.741404
O     42.755936    50.026601     9.958498
O      4.718831    38.496923    24.172434
O     10.363602    45.079633    43.231411
O     26.170181     6.969632    15.091129
O     24.962359     8.925466    31.603279
O     54.292393    19.499471    41.654428
O     13.623058    12.519956    34.681384
O     19.200052    23.061471    33.814822
O     34.077975    29.376949    34.437885
O     56.547001    41.074494    26.237139
O      0.399618    30.330212    25.767271
O     27.673433     0.535432    16.944397
O     49.267364     5.198114    40.614286
O     53.617775    13.698189     7.409893
O     46.566662     0.839609     9.655073
O     30.161789    27.556059    19.687979
O      0.026599     5.242271    40.020170
O     10.860420    11.982425    51.039256
O     24.876899    13.427612    32.378485
O     12.404332    25.826774    51.772306
O     43.410644    44.646320    26.362174
O     34.821913    14.211494    45.941871
O     11.131811    33.384321    39.545183
O     29.565026    47.803345     6.382418
O     42.604134    16.148292     8.227411
O     35.209774    35.819655    55.500193
O      1.401757    51.212176    12.050101
O     52.201318    42.668774    43.675484
O      8.161671    44.804556    27.990839
O      1.535475    38.998609    44.387865
O      7.619206    44.567195    24.541863
O     39.007654    16.669538    40.880662
O     13.770542     8.345068     6.809274
O      2.651041    23.213105    54.685099
O     47.721565    37.782378    53.805675
O     40.793393    26.147962    55.172123
O     50.784077     6.024350    14.841138
O     49.553874    24.139983    28.174403
O     11.396210    40.534604     4.609650
O     54.040734    53.883856    17.157417
O     23.129034    30.185782    49.946556
O     48.176875    16.531173    30.034708
O     45.677838    32.227843    41.551755
O     39.317641    36.031588    12.005911
O     55.282495     3.747889    29.994558
O      5.445100    46.457453    44.925484
O     19.860295    45.018038    20.365557
O     28.112668    54.302065    29.595368
O      4.482997    42.914254    25.966565
O     10.902324    47.346952    54.415133
O      3.127750     0.873688    22.593642
O     32.128889    29.959955    11.831921
O     10.320235    28.909693    55.233617
O     51.098637    21.032662    51.561549
O     31.066319     8.186779    38.453972
O     34.930596     3.970051    55.392381
O      4.972725    11.623278    56.222967
O     39.457229    32.700534    18.367085
O     34.030335    30.777462    45.005960
O     21.984523    24.536955    43.710092
O     44.330062     6.607990    53.773944
O     40.886089    33.540893    47.993632
O      4.662641    33.026962    42.962508
O     52.306078    44.414291    27.702298
O     38.152594     5.483978    51.329191
O     51.430411    49.165569    44.908223
O     38.939447    32.011639    46.933504
O     18.393194     1.103898    33.606163
O     17.886483    10.733350    32.104777
O     54.423382    37.732663    22.135391
O     52.204690    14.871450    48.943655
O     40.125278    39.520542    45.193083
O     21.693096    31.369440    37.286156
O     52.411793    11.928945    21.738198
O     40.610413    20.144224    42.367793
O      2.941615    34.348396    48.031074
O     30.509324     3.638597    35.895746
O     33.874572    20.081216     6.127952
O     49.269830    12.767450    32.148195
O     47.899122     9.400146    26.549567
O     22.686744     3.661191    20.286910
O     41.243690    21.938770    27.684654
O     23.911088     7.189123    40.516500
O     13.919602    40.790236     5.585463
O     52.134986    34.160814     5.227247
O      4.099088    32.263077    22.672518
O     31.516124    13.957163    35.425845
O     51.774996     1.696866    47.556759
O     20.103411    30.057689    19.420013
O     39.642841    33.968872    43.959047
O     48.205290    45.616123    18.339213
O     50.463852     0.751114    28.532394
O     32.303969     7.641236    30.384650
O     10.606051    11.692366    38.117801
O     10.486975    51.513420    12.834671
O     25.367718    24.295071     0.196740
O     20.154260    22.739951     1.212332
O     22.944375    34.747945     7.325613
O     56.484772    27.929009    37.181192
O     40.671682    25.337950    41.411182
O     11.689710    55.859329    41.996193
O     45.839510    38.991055    21.852987
O     32.170187     3.499250    38.156041
O     10.104678    43.706397    24.272824
O     11.734646    23.551613     5.573678
O     49.361476    45.741413     4.223883
O     40.019542     0.638241    29.995815
O     50.932566    17.201076    48.275904
O     17.605472    34.377866    21.893558
O     36.352466    51.882099    37.684977
O     27.183424    43.174903     7.563640
O     55.898756    46.285002    44.680671
O     25.064385    22.406889    38.189953
O     19.075647    23.549937    39.323308
O     18.930904    20.695696     5.452977
O      4.560105    30.435818    47.765189
O     51.903571    32.120174    19.588099
O     32.129717    50.009249    16.568493
O     52.079123    31.760884     6.583282
O     14.450880    12.836318     7.911149
O     37.611698    49.210389    40.902941
O      6.944292    52.703081    33.354550
O     10.784756    49.458381    14.423795
O     36.553608    28.294233    22.865052
O     44.695183    24.282190     1.146203
O     56.377582    15.168521    51.744062
O      2.621118    39.683011    10.196455
O     48.343081    29.204503     9.338211
O     41.290083    26.596121    20.532532
O      3.531669     1.142922    39.533893
O     34.444791    26.865646    45.578099
O     16.694397    18.291126    14.523713
O     33.327169    18.714301    18.189296
O     45.137422    51.450977     2.058053
O     18.227945    18.423229    31.951556
O      7.598933    28.746588    11.084116
O     39.416181    11.686549    13.034665
O      2.223617    25.115241    12.593271
O      5.677348    32.100881    35.073704
O     29.263713    20.837195    56.594385
O     36.671793    53.874791    47.445026
O     23.022627     1.391263    50.393843
O     25.433735    30.944071    50.906732
O     19.804426    15.509686    20.780177
O     20.827913    29.902665    26.214952
O     47.151251    35.103128    37.707319
O      2.959743     2.400447    45.044749
O     28.449340    21.714626    43.873892
O     30.733309    20.148139    47.123014
O     54.991427    49.027741    37.523685
O     20.866203    12.115499    35.905857
O     55.969390     5.267075    11.479730
O     49.862685    21.520076    11.681550
O      1.702667    35.615068    42.367384
O     44.081465    23.422181     5.269616
O      2.697037    34.516106    38.444831
O     11.925883     3.535914    55.973812
O     32.295595    45.756600    39.012795
O     29.960344    11.317820    47.492052
O     22.876969    38.165420    13.926029
O     55.471188    16.944845    27.785306
O     19.432099     7.610479    37.001234
O     48.784731    28.103844     7.002997
O     20.633345    31.488266    52.862744
O     13.791706     5.819367    22.657727
O     19.039806    24.627249     2.563216
O     47.861620     0.061426     6.134473
O     27.602965     5.733713    25.511030
O     47.605484    46.481929     2.327300
O     40.850466    13.472777    27.850292
O     30.678854    50.845445    52.212932
O     49.774650    21.074139    34.156603
O     39.331685    52.100834    34.875983
O     32.353127     9.821102    34.822070
O     36.274252     1.310477    30.014760
O     32.099636    16.776518    54.468861
O     44.180874     5.782192    15.087049
O     50.474626    23.038592    20.333661
O     44.471513    17.430826    44.761457
O     10.634717    17.770616    52.062320
O     30.739599    15.705271    28.467418
O      4.580155    37.839296     9.445756
O     28.800426    24.181071    52.845400
O      7.977789    29.217818    18.004639
O     28.288688    46.830023    54.298038
O      2.014649     2.016795    42.393247
O     25.113809    33.299006    10.020636
O     44.252199    54.270763    39.726369
O     51.904678    37.934931     9.799480
O     40.640397    56.536778     6.587315
O     37.025227    41.554821    20.931943
O     12.339417    27.108441    37.268499
O     45.571221    39.871657    40.304286
O     26.614707    40.045984    53.001788
O     50.096680     2.848395    26.263315
O     42.831077    55.492071    16.685171
O     14.465932    10.327050    20.974005
O      1.281859    45.669932    33.223940
O     24.006023    51.007624    17.846697
O     16.747513    32.099331    12.024554
O     31.213877    40.048326    45.447765
O      0.420190    29.422499    50.930407
O     23.054495    17.856349    50.647715
O     54.243408    52.730511    14.791564
O     25.618091    36.471629    44.274603
O     31.603382    11.701605    33.246176
O     46.731376    17.628241    47.960845
O     44.058501     2.940710    37.896418
O     15.613385    19.540374     8.933220
O     35.477817    30.207977     3.886414
O     24.754874    44.961423    22.186585
O     33.873365    33.062933    18.391337
O     20.394116    49.882921    53.849036
O     14.906666    38.273167    31.035026
O      1.069194    40.612298    48.414430
O     22.535228    16.010208    48.924840
O     14.479681    52.574156    15.674194
O     54.260682     8.176351    28.571246
O     44.852028    18.307386    19.624537
O     34.688259    51.466352     5.983596
O     54.597573    16.922467    52.705802
O     35.140730     0.219935    49.858458
O     32.257315    46.598185    42.442085
O      8.992394    15.281220    47.999532
O     21.505012    52.088408    22.206412
O     49.248263    26.624485    45.096341
O     29.514432    22.989607    30.707781
O     27.527332    31.583878    21.678159
O     30.479181    49.818248    14.479532
O     12.572127    56.259502    30.893802
O     17.334733    27.924727    48.422282
O     30.264385     9.797260     0.135038
O     54.437115    35.104569    22.598725
O     54.234185    34.042670    17.273428
O      5.379146    19.646149    43.460677
O     37.732581    17.539163     7.778917
O     18.798296    25.821104    21.597230
O     47.029219    46.113138    47.180712
O     50.090760    29.436511     5.078547
O     49.540780    26.945320    50.484751
O     20.060392    33.628724    22.186184
O     19.341379     5.787325    52.224139
O     38.330287    15.004503    52.436893
O     49.642986    13.343979     7.715390
O      7.386261    15.369814    36.782161
O     38.946809    32.813065    30.628670
O     18.620273     0.933151     7.847712
O     45.878593    11.606229    40.368632
O     21.085214    25.165976     4.189424
O     11.593850    26.482608    55.392472
O     33.616910    38.868395    49.336640
O     24.518560    23.282579    19.548185
O     38.115828    53.635614    38.630400
O     55.794733    52.823995    24.799937
O     27.548842    13.536496    35.069517
O      1.979895    18.000187    41.912941
O     32.864106     7.122063    40.449223
O      3.946451    35.061654    31.997301
O     46.374444    55.001570    10.722150
O     48.368722    12.730531    40.089369
O     50.282237    35.343973     3.723720
O     40.925866    39.721723    14.519254
O     45.731119    13.375420    46.831834
O      4.219033    26.897090    38.840872
O     43.540365    49.554686    51.806901
O     20.624791    19.299322    31.959821
O      3.553780    53.275904    44.952529
O     13.803452    44.388227    19.404041
O     44.258976    31.460968    12.277651
O     31.144254    15.493049    20.470341
O     38.232891    45.323695    22.552382
O      3.375510    44.179205    32.621476
O     48.452399     4.893937    11.654656
O     27.545820    42.171521    31.022996
O     41.253211    11.395258    45.266869
O     43.199839    29.113310    47.997148
O      2.896266    45.127371    16.848806
O     40.341162    22.638906    45.532189
O     49.650546    14.481892    55.482655
O     28.181997    14.784501     9.301295
O     20.409658    42.299760    12.928548
O     13.811583    25.083553    54.852387
O      8.075070    32.540725    19.805683
O     38.130061    17.165107     5.155135
O     20.569914    36.215197    16.768711
O     25.700628    49.147669     2.343770
O     49.306299     3.936217    13.868624
O     15.806377    50.480426    16.350642
O     34.305554    37.687177    20.319236
O     43.936589    47.966498    10.824673
O     34.057638    46.071278    48.560688
O     45.284039    21.791406    30.180001
O     42.967373    12.592927    36.893327
O     45.211225    39.303097    11.672071
O     54.580050    47.314053     2.236373
O     32.055104    18.869111    35.260300
O     37.346978    36.168919    15.942650
O     42.512351     5.174239    30.872054
O      0.588188    31.807922    14.122815
O      2.259223    45.048794    14.350427
O     39.796898     7.048898     6.077159
O     41.643825     3.347073    32.579239
O     24.315447    27.761094    42.753920
O     50.538764    55.348267     4.617130
O     53.971013    38.753420    56.250270
O     31.357014    45.239320    23.951135
O     38.463537    52.330694    10.098028
O     52.341689    38.680146    20.916219
O     18.368660    20.418298    43.500593
O     14.495445    39.467757    39.045583
O     29.435302    19.230343    35.012717
O     54.262953    32.636525     9.909322
O     25.193591    29.051434    35.336839
O     10.955179    33.750086    24.911677
O      1.106876    50.755129    33.778647
O     46.629070     5.062717    40.877409
O     30.349158    43.094062    33.580954
O     42.295793     0.276138    49.909525
O     26.270659    52.304109     2.374189
O     34.299201    29.362429    21.832063
O     19.577073    36.939831    23.387607
O     34.690457    52.346438    43.869976
O     21.011120    42.765059    19.604237
O     16.747315    31.796883    43.648134
O     16.683002    17.609594     0.637516
O      6.516189    15.983193    25.985414
O     50.180643    18.603758    51.784199
O     27.036472    52.094978    46.350512
O     41.862379    17.539004    15.366687
O     11.065021     0.406969    28.945727
O     44.159784    34.167266    26.733375
O     14.364137    49.700800    46.405451
O     16.235425    24.569259     7.809243
O      9.856009    48.132142    28.890372
O     12.008030    19.060633    12.806856
O     15.431292    28.511405    24.549396
O      9.726500    11.458611    18.948166
O     41.953135    20.008154     0.170011
O     56.424875    45.737203    51.286022
O      9.444623    52.432693     7.912746
O     12.149301    25.294937     7.384806
O     19.427272    36.178720    28.707012
O     15.621695    25.204885    32.868526
O     26.990908    40.426176    14.634332
O     27.043076     0.007406    52.729098
O     52.148835    32.132395    33.650458
O      7.770869    36.590531    53.849555
O     41.943265    40.065293    43.279497
O     29.649511    16.872145     9.334849
O      5.358165    28.355752    17.085944
O     16.713774    51.252277    39.888115
O      0.236602    47.830681     3.450191
O     27.175391    38.508899    26.925363
O     10.588108    16.431380    49.723923
O     13.926290    33.144661    49.704351
O     10.834757     9.045116    52.296847
O      9.206202    18.209748     6.473122
O      6.510915    35.198563    12.826782
O      9.048302     1.556752    55.626939
O      0.698291     3.195537    18.395564
O     14.892133    15.586258    18.345201
O      0.899768    56.450358    14.638676
O      3.369938    18.319482    28.981533
O     55.260973    56.065131    27.376739
O      9.333816     3.042473    15.255264
O     41.258600    22.386510     1.115338
O     42.291912    44.681788    51.795651
O     40.935485    47.144165    34.556707
O     32.747987    45.581345    30.058760
O     29.201724    40.547865     4.439246
O     29.365068    27.944246    13.408451
O     31.105897    35.519531     1.926536
O     44.400767    49.328923    41.938957
O     33.717947    41.638481     5.117982
O     48.841395    54.480263    17.063931
O     55.682587    40.945240     6.714809
O     54.117192    37.346356    14.269160
O     39.698832    50.885343    22.453309
O      4.732625     1.574257    51.300504
O      4.096314    18.862598    37.156754
O     55.928210    37.271948    55.541262
O     37.795409    18.641421    49.289446
O      9.281004    27.306702    13.938053
O     24.457505     2.512006     6.797921
O     49.081920    33.156511     0.137005
O     11.712456    18.855599    43.526499
O     43.139503    29.612984    13.815674
O     13.576904    23.057049     7.205876
O     40.769160    22.121309    30.413119
O     36.360691    48.275076     7.877356
O     11.940358    31.540853    52.611655
O     45.297280    22.561022     3.006487
O      3.462581    17.767039    22.967355
O     34.787857    49.391436     9.591622
O     24.663496    12.395675    28.637920
O     20.617579    51.328646    37.058478
O     11.677535    29.308701    38.326736
O      6.989385     4.107463    15.901025
O     23.205646     3.734665    51.752273
O     48.486017    33.422022    54.039302
O     32.893941     5.599831    31.954214
O     43.724746    39.081997    13.809162
O      7.148890    22.359696     7.894727
O     37.732498    39.041973     3.355712
O     22.543742    41.310039    34.901181
O     49.049735    26.924565    34.139098
O     23.673250    19.307100    23.114413
O     14.258023    47.595224    37.660165
O     16.159922     5.362046    13.810073
O      6.490624    43.330822    46.590988
O      6.508081     1.579844    15.791706
O     21.433703    14.067182    53.013744
O     43.735305    45.325902    44.062176
O     42.309675    23.939132    39.744510
O     28.724519    31.893490    30.652712
O     19.215084     6.740499    29.205070
O     36.488885    46.948500     2.078306
O     52.030542    26.895129     9.473729
O     48.274958    51.577342    49.393414
O      5.719548     0.916272    20.723968
O      8.926291    48.834859    18.825734
O      6.309967    33.450300    14.717266
O      7.680846    45.195385    45.270191
O     26.135162     1.517512    50.792920
O     19.743575    20.836899    45.769651
O     18.383842    16.606984    10.704020
O     35.133760    11.169379    30.629085
O     31.213008    32.920137    52.539841
O     38.809198    35.658042    45.998128
O      4.920092     2.703550    56.241540
O     39.525421     4.602113    39.092679
O      2.264278    53.050940    33.369331
O     25.923523    34.138624    13.915114
O      0.824708    30.909723    21.639466
O      1.379364    38.503013    30.986834
O     54.590453     2.416729    10.552325
O     18.754384     5.884867     9.263811
O     13.608101     0.292198    35.174316
O     10.932170    23.583203    29.248736
O     23.929339    34.538475    21.309317
O     28.565430     9.160450    35.611297
O     42.658215    19.349417    51.159060
O     45.092381    53.540490    42.954336
O     36.816914    43.158363     9.045349
O     20.684290    15.718257    28.939856
O     43.333516     3.428360    22.336527
O     39.655666    53.490748    54.473169
O     21.888505    29.923077     9.899071
O     47.256002    23.541184    30.486226
O     12.186136     0.016651    44.518643
O     42.595286    18.997940    43.698932
O     56.592149    19.095865    40.557825
O     26.821830    33.101574     4.767526
O     35.924688    46.020879    27.203731
O     34.133986     4.006872    19.030915
O     28.155510    20.547294    29.162850
O     25.832112    10.309968    23.033539
O     22.903215    36.919489    21.407704
O     22.629945    32.560068    14.118186
O     30.655916    19.088548     4.384912
O     16.711956    39.714577    52.227418
O      8.053291    23.929198     2.806635
O     32.885831    44.164499     4.375539
O     34.689261    16.605426    25.719228
O     40.029429     5.154746     3.056794
O     45.401090    47.956866    46.701101
O     49.270390    21.744221    14.347916
O     23.401931    38.405119     2.147514
O     24.932352    45.282861    56.061567
O     20.403086    52.742994    34.862613
O      7.645926    32.406140    30.113546
O     31.232146    43.037338    52.020068
O     47.303869    42.056714    16.814953
O      6.361372     6.800328    22.103372
O     14.043647    41.870982    12.688600
O     44.911920    43.266623    37.232707
O      6.958191    11.211357     9.976872
O     36.583700    22.790043    30.043762
O     45.546151    25.258221    28.490374
O     30.332331    28.929474    24.768001
O     41.260542    11.942774    29.975273
O     32.584013    22.103011    13.921322
O     25.883089    30.077781    20.307986
O     55.072437    36.505800    17.862865
O     52.363875    32.816325    25.019913
O     48.395210    32.556365     5.475906
O     45.513990    51.728980    37.660952
O     51.876578    54.053377    44.879146
O     51.535538    26.958691    21.456737
O     13.682254    19.672814    54.849803
O     54.239300    49.077310    32.762442
O     29.010380    31.556129    52.667466
O     50.294827    43.519185    13.584742
O     41.376139     0.067553    34.973983
O     47.357228    22.042474    34.516619
O     41.489135    45.379947    38.739702
O     51.016196    49.651213    12.197004
O     25.509535    29.690126    25.672603
O     49.709056    39.117536    21.045791
O     33.278630    13.556493     9.967404
O     51.621941    21.934253     8.461025
O     50.632662    34.497697    55.144909
O     37.768841    27.094396    11.693855
O     34.963763    44.312008    28.911146
O     32.070337    36.688660     5.471377
O     16.788222     4.068449    26.928765
O     40.772374    25.893308    11.598069
O     38.459043     9.543322    29.845090
O     49.055063    10.532198     6.142492
O     16.018077    53.528813     3.089272
O     40.872091    40.868816     2.992738
O      4.102976     3.097375    35.051769
O     37.135134    49.407176    34.935940
O     20.401390    48.869278    46.625451
O     49.971010    53.222995    54.034467
O     52.084022     9.220903    52.587295
O     36.388991    29.237380    20.269504
O      4.099369    16.350870    49.893909
O     20.221084    44.886658    37.930116
O     22.625825    26.886776    22.713930
O     50.520900    19.589009    21.962200
O     25.263928     3.533462    36.803528
O      2.264890    21.986431     6.815681
O     28.363965     7.587304    33.487944
O      4.004827    51.866416     0.238236
O     43.226490     0.646061    56.171723
O     45.130162    26.035675    44.021010
O     51.916533    38.171703    29.579767
O     36.948835    34.576489     1.355676
O     26.556554     8.163492    37.075497
O     54.853766    41.510741    12.483795
O      6.146576    37.436398    47.028944
O     46.693102     1.491879    19.841110
O     30.781814    14.498384     9.896870
O     12.288984    51.766342    39.843710
O     33.153046    34.879206    10.815773
O     25.985691    41.108042    20.555683
O     37.950446    35.026894     9.989163
O     18.346395    27.347196     4.112585
O     17.952444     6.778745    16.860850
O     51.317028    37.474301    42.618717
O     50.183548    12.819505    45.473029
O     41.679177    15.379581    26.324141
O     17.163097    12.497479    45.791133
O     29.216560    14.747311    56.409602
O     53.510900    28.205891    41.647420
O      0.424653    56.570623    51.374470
O     20.692750    48.731550    32.374403
O     32.692738     9.780057    52.256294
O     36.927925    47.501416    16.767991
O     10.980003    18.287900    30.158625
O     32.125035    30.662867    49.570662
O     44.596997     8.300901    15.816684
O     14.825688     2.429353    33.990689
O     41.383535    29.053022    53.870105
O     35.688223    55.729721    31.368594
O     19.098715    50.522434     9.746509
O     42.365275    40.662716    45.782600
O     23.607013    37.953622    38.615540
O     45.512138    28.210720    39.458824
O      7.767768     1.887224    36.807232
O     54.175281    19.220435    45.385913
O     32.219910    25.843143    44.926834
O     37.960782    29.812471    47.841202
O      1.486762     0.382696    44.264377
O      2.900519    37.478351    40.652791
O     49.784138    28.243312    25.525765
O     29.042012    13.856779    27.746587
O     21.172234    54.519860    50.465191
O      6.259117    54.942984    37.125452
O     28.746177    43.205938     4.398612
O      6.012936    29.152455    33.712309
O      9.027765    23.252781    42.266904
O     17.516550     1.099799    31.119196
O     20.504944    16.301208     9.123673
O      7.844095     8.281452    26.477627
O     12.091150    21.715619    49.250705
O     47.737053    13.232643    20.561372
O      3.214472    20.295120    33.854106
O      3.228442    42.294830    12.528485
O     24.044814    25.130854    29.804532
O      0.057140    48.626726    31.708805
O     55.141559     1.839436    18.339691
O     22.327408     9.633656    41.902726
O     24.889832    30.468189    17.381636
O     50.367692    42.861621    53.190931
O     20.613492    33.318084    54.798554
O      5.418023    14.074428     0.159663
O      3.515914    29.574896    38.462514
O     56.348542    25.087114    47.228097
O     31.103487    16.460430    24.039181
O     38.767487     1.222585     5.157333
O      9.299140    15.861065     1.603463
O     36.295608    19.336273    46.498624
O     54.626542    21.876449    54.960768
O     15.159972    17.881994    12.333144
O     33.641638    42.964395    33.977976
O      6.735709    19.978219    18.463567
O     21.440635    54.573900    11.902770
O     29.840701    19.056777    30.541796
O     50.829092    14.924174    29.719194
O     41.638031    34.210887    27.442496
O     49.448640    46.976475    44.349692
O     34.157737    25.800784    41.225177
O     19.943540    11.490620    26.901717
O      0.641544    10.347951    11.483855
O      4.320444    35.691303    46.193985
O     29.033339    32.178051     9.326981
O     23.392516     8.121611    38.105222
O     27.725348    27.082346    46.446289
O     33.416686    20.173492    39.410890
O     31.399952    52.486506    32.407839
O     21.326461    30.976414    47.961898
O     12.467635     2.320585    19.010943
O     53.880176    51.399475    41.409036
O     28.282311    54.340619    18.968367
O      9.135577    35.062648    52.305587
O     22.741128     8.151747    35.582264
O     27.614151    34.356862    18.473611
O     12.313452    31.937444    26.161544
O      9.871432     0.950105    53.080091
O     49.183877    21.113089     3.895621
O     20.085423    14.609049     3.380695
O     30.023553     6.085738    39.946420
O     54.679316    18.043155    18.119527
O     14.133270    27.892254    44.596193
O     54.625630    45.473109    15.916309
O     40.303463    24.152444     2.815360
O      5.494514    11.467478    12.136985
O     13.485404    28.258242    39.884679
O     27.209040    22.884557    23.492576
O     27.542996    18.952066    14.856399
O     30.048456    30.155001    48.130923
O     21.781799    26.467009     6.341366
O      8.573646    47.953467    10.408858
O     26.652980    18.702969    39.686254
O      1.291177     5.731701    49.614939
O     16.269249    11.889940    54.601559
O     19.632509    34.813651    14.767976
O     21.819215    26.611101    33.493322
O     30.258664    51.744350    48.430512
O      1.333296    16.769335    44.065359
O     18.441317    31.590046    35.087384
O      1.293040     7.409158    18.856754
O     40.687165    53.873357     6.776977
O     49.662113    15.217167    49.487035
O     26.291922    40.803247    41.997415
O     53.457537    28.676872     1.935600
O      1.464575    36.786443    50.051782
O     25.619644    15.309284    30.620933
O      9.484258    21.543090    48.954407
O      2.314377     7.621801    47.862447
O     53.136669     7.313246    11.148298
O     20.170709    25.488375    38.007226
O      7.993033    25.320338    17.199258
O     51.170878     3.057258    23.981321
O     37.550300    41.478166    16.115413
O     41.654410     5.091840     6.515090
O     51.741054    11.751752    42.228664
O      6.097268    17.740989     4.742965
O     51.066230    36.255482    11.621807
O      0.513020    41.335744    43.215788
O     48.878777    13.986902    28.025662
O     37.322631    51.668621    40.144306
O     10.509086    44.707536    56.515497
O     10.089608    21.631757     4.708245
O     20.024893     0.016585    46.273390
O     26.109062    30.057674    44.691456
O     47.474568    11.358945    30.634881
O     24.492848     3.152115    31.702226
O     33.063657    50.147147    38.812048
O     25.696223    55.721287    38.930442
O     35.620011    53.505417     1.423245
O     21.580855    48.165156    13.625539
O     53.190141    41.726318     7.525598
O     22.055641    24.472030    19.656368
O     53.840629    48.009422    44.460187
O     16.330651    38.287454    35.567636
O     10.058901     7.103509     1.400008
O     21.868884    52.666631    17.574617
O     50.502136    31.958759    54.934600
O     48.927720    27.388862    20.977597
O     34.368006    35.667923    40.580036
O     18.274113    49.148275    39.677751
O     40.045597     6.422970    54.992311
O     41.568915     9.165538     9.995700
O     52.921203    25.816544    16.831399
O     34.853045    46.874133    53.752400
O     16.592615    26.976925    12.371196
O      3.536346    45.329683    26.115508
O     27.995112    10.849986     0.820496
O      5.831515     5.076399     0.439083
O     16.753572    25.625078    37.743472
O     36.220904    46.056318    38.617758
O     18.187850    22.673174    44.856929
O     35.977974     9.826845    21.066805
O     23.140834    11.081412    48.649970
O     27.639195    15.510864     6.783670
O      0.951742     7.890118    52.539128
O     43.161452    50.691411    31.513095
O     12.588498    42.903573     4.594762
O     54.428043    27.766330    12.548029
O     19.987681    45.685083    25.783983
O     36.387036    20.056048    51.105904
O      6.616468    44.191604    30.045256
O     41.955783     3.214969    17.324705
O     51.492912    17.953870    55.576652
O     22.168205     1.715190    52.959783
O     24.770608    25.253564    14.295735
O      5.742937    47.875751    38.738681
O      7.687165    42.638524    19.290984
O     19.548627    19.409006    41.423950
O     16.532507    11.206945    19.827199
O     49.438423    26.068334    42.452068
O     51.885740    12.338194     8.806571
O      7.117542     2.398310     6.286993
O     47.941239    31.811183    30.501610
O     37.984389     2.607054    11.475253
O      1.399431    16.508749    24.594854
O     24.025764    10.211642    36.467434
O     16.943362    29.648485    55.729442
O     10.169239    45.125420    53.163204
O      6.836249    41.636609    52.996124
O     55.198366     1.479072     1.072122
O     27.845855     8.629659    43.832569
O      8.055548    13.508551    19.278170
O     36.812495    30.417868    51.795812
O      8.702135     7.636875    23.044145
O     45.419192    11.976064    21.063663
O     54.707532    14.218551    50.019361
O     23.525066     9.563124     9.470097
O     42.834310    24.073073    24.609781
O     22.684199     2.177503    55.539940
O     33.851497    28.311150    40.298916
O     51.727684    16.745104    32.982552
O      5.429602    37.704761    54.327319
O     50.189465    47.425842    18.708591
O     45.611013    19.291866    54.085738
O     52.736855    35.422947     2.843504
O     11.705820    33.248841    55.150149
O     45.402094    28.261684     5.309775
O     13.077289    19.110637    31.477239
O     27.578266    47.009317    40.505995
O     19.040629    19.037386    15.719808
O     35.286852    36.166484    23.658806
O     11.923143    24.066068    48.005817
O      0.511491    19.318408    43.600086
O     25.190120    15.413213    44.831280
O     43.158321    17.711368    31.852057
O     36.802179     7.528432     1.912947
O     42.090716    55.417112     8.549154
O     15.400604    36.118723    32.468367
O     48.928555    36.324252    49.909208
O     26.301691    13.483457     7.852582
O     46.652345    48.119306    20.192081
O     36.940285    44.692449    33.945513
O     39.237785     3.966574    55.867947
O     34.612680    36.794158    26.177435
O     12.534378    21.992612    27.953100
O      6.342718    43.290836     9.906070
O      0.359899    32.157550    19.335634
O      3.582588    22.806202    34.344844
O     16.102342    22.649585    52.442444
O     26.518287     5.981037    20.215090
O     15.560542    34.400265    11.261686
O     40.708556    25.639524    49.071513
O      0.150425    16.651315    33.642320
O     11.877862    34.900487     7.389072
O     23.806897    53.141814    24.563978
O     56.333702    17.987930     3.098711
O     37.583322    22.410038     8.985364
O     27.899732    19.576543    24.728031
O     49.280256    45.268642    40.493317
O     21.396886    35.757863    35.381133
O     19.680816     9.075964    55.312164
O     28.546479    44.908850    32.951441
O     14.829048    17.286672    26.664648
O     35.288502     6.417018    40.302603
O     10.687240    28.798537    44.467432
O     47.364011    50.411102    55.692200
O     13.591877    52.725793    32.135010
O     10.176989    37.444032    53.009055
O     16.330634    35.572671    34.820111
O     29.861616     1.614511    56.326242
O     31.802581    38.018105    34.061209
O     25.832264    15.882797     8.696524
O     13.059034    37.777390    25.786416
O     47.257108    32.660156    43.755610
O     56.277364    19.835802    48.776354
O     50.826205    37.716939    25.019057
O     15.045347    37.236961    13.264440
O     42.202353     4.716272    13.584354
O     17.606786    51.899294    23.928413
O     46.710166    11.193007    33.657527
O     52.498565    24.168352     9.683009
O     42.240162    17.207017    21.773979
O     39.253707    36.274956     5.439174
O     11.443150    47.140783    19.016609
O     15.620911    42.041691    49.794260
O     14.076966     2.655989    54.775309
O     51.539426    51.390481    55.086460
O     28.434068    36.796642    18.094530
O     33.152481    44.483456    41.212842
O      9.365605    20.205760    16.493645
O     46.632028    39.342243    44.590410
O     33.258217    46.793398    13.956799
O     36.428205    20.057133    36.122705
O      5.481239    53.340209    17.287279
O     36.952139    21.771399    33.118128
O     26.920488    45.193042    52.742114
O     35.216898    27.882469    29.745350
O     52.927308    33.866260    38.556299
O      6.654301    31.674159    44.178962
O     22.448594    49.274893    42.557899
O      4.460812     7.854813    36.206274
O     46.710529    20.028490    12.933394
O     18.764667    27.187026    16.999970
O     44.116552    33.183481     0.526067
O      0.305945    56.127724     1.088254
O     35.876770    24.024204    18.596413
O     14.526039    26.925539    19.277277
O     37.370999    37.908252    22.930988
O      4.000859    12.278567    50.459298
O     42.634986    52.569152    38.737849
O     42.372263    47.604365    37.940621
O     53.004824    27.147329    49.840492
O     31.673708    29.589992    56.529145
O     23.619392    26.998849    11.289674
O     10.028197    35.396114    54.778205
O     54.225999    14.717758    27.216710
O     37.228701    17.750317     2.749300
O     19.021592    35.961795    53.484416
O     52.782435    43.894127     9.158775
O      2.832534    19.449152    18.510626
O      9.465896    11.669137     0.524914
O     51.606816     3.406482    14.968468
O     49.647338    31.547932     7.594795
O     44.284473    26.900091     1.653060
O     13.004040     6.516977    48.405290
O     24.082257    51.915744    51.068437
O      8.041130    34.898312    18.827481
O     39.081162    10.735374    43.939224
O     22.668691    24.205761    22.833165
O     13.804104    49.483696    43.459682
O     40.649845    41.480000    35.257763
O     22.916295    55.405902    13.933667
O     30.021997    45.442084    29.377755
O      5.682039    18.133262    48.929385
O     14.844105    28.253158    51.887450
O     28.059948    33.370706    43.793532
O     54.576966    39.578283    25.677634
O     28.700448    17.331959    16.492039
O      1.208945     3.839764    47.173199
O      0.823341    36.322959    53.640453
O     56.547052     8.231915    31.528289
O      2.070872    47.745772    16.952008
O     48.205328    34.005123    51.221012
O     42.246717    50.729974    23.011208
O     40.270776    15.610663     7.114035
O     21.838503    41.225810    23.224193
O      0.627097    13.100801     1.510694
O     31.149386    27.121826    55.897010
O     19.403915    29.418243    12.659395
O     30.376947    41.666518    18.852519
O     54.270223     8.915714    46.812175
O     24.709238    26.211681    25.824906
O     34.759538     2.457709    38.723076
O     45.737272    29.071333    16.211957
O     28.548219    51.603551    11.794602
O      9.430211    14.327106    23.827499
O     14.329959     4.622480    26.244941
O     35.700223    17.046213    53.874820
O     44.735187    49.963488    56.417680
O     41.780723     1.430138    21.650502
O     16.432410    24.564225    54.253721
O     15.174136    43.889493    17.236058
O      6.716783    21.870182    42.630668
O     22.461141    42.066496    47.334859
O     50.692351    44.773797    18.690916
O      0.917901    17.859163    46.523813
O     36.923641    24.444731    28.081817
O     31.688501    10.116583    40.155327
O     37.914054    32.971836    42.245469
O     31.532749    31.615225     7.113256
O     20.822655    32.865907    46.019075
O     17.743878    11.296161    14.028267
O     53.138991    31.651356    17.300947
O      7.035907    42.666013    50.609518
O     14.159120    35.867249     6.690768
O     22.285861    12.850014    27.608126
O      0.333277     8.805192    46.651252
O     45.788767    19.620968    31.504975
O     13.163555    11.219508    18.761172
O      9.057043    39.249298     4.133189
O     48.310925    19.010386    46.047104
O     40.471285    19.127889    52.786108
O     49.285721    44.410499     9.096003
O     55.996349    28.897327    27.824733
O     41.438836     0.831268    54.171599
O     37.807258    55.908437    21.169536
O     17.528887    54.436267    20.080568
O     11.360149    28.751299    30.113587
O     52.265277     2.056990    11.800763
O      4.176836     6.487964    38.382117
O     18.974247    37.398186    37.786433
O     12.457489    31.136527    56.559991
O     21.469873    46.161767     7.005116
O     10.823970    40.614418    29.254549
O     54.255447    43.331450    45.264132
O      4.806808    47.911635    49.533481
O     39.487685    41.503145    46.822109
O     49.774683    52.921432    30.720494
O     43.793307    43.998658    13.802644
O     27.474626    15.242633    36.996447
O     33.191461     4.752412    44.646235
O     28.385519    54.225525    24.206636
O     28.449732    36.722780    28.556105
O     28.988266    52.548666    27.068521
O      3.499046    28.512840    11.136237
O     36.892257    51.823817     4.782247
O     29.544330    11.306204    28.451018
O     47.543016    33.057036    15.342480
O     48.894002    28.859707    29.716410
O     33.592508    42.122463    36.598130
O     52.227734     4.244618    47.998353
O     46.227978    51.732856    22.468965
O     37.900058    54.887932    10.616235
O     37.231512     7.335054    12.133558
O     38.731087    10.365475    49.030016
O     29.708407    50.019153    25.375659
O     56.577539    24.401119    13.668187
O     45.292177     1.674960     0.795291
O     29.368905     1.660752    23.002473
O     22.947715    32.954711    42.318184
O      6.848338    10.809222    47.839469
O      8.246740    22.551259    44.653077
O     14.703631    30.770579    11.056709
O     50.962294    12.689623    24.503671
O      3.559807    25.764132    54.501835
O     11.115073     8.036501    47.596173
O     10.470152    35.287309     2.275064
O     14.480203    30.820450    51.885257
O      5.481308    30.871928    41.877416
O     17.138458    28.948221    29.538054
O     51.835624    50.553247    22.882845
O     53.076375    39.992678    54.046358
O     40.505870    35.002439    17.863704
O     17.540806    23.288305     0.883275
O     45.945823    45.189660    26.622913
O     31.836698    55.418995    11.472542
O     18.031895    32.949423    49.227874
O     10.142432    15.158710    51.876703
O      5.202771     3.558118     7.492410
O      5.479675    21.691077    55.594936
O     43.484421    29.438319    27.269833
O      0.959560    45.634102    35.934719
O      8.391848     0.257005    17.326993
O     32.840531    24.217488    42.829033
O      7.961559    37.436166     5.698776
O     24.432962    20.173097    46.624902
O     45.932367    47.246568    51.984350
O     42.917191    10.849762    38.762952
O      5.256624    44.352157     5.765271
O     36.905591     9.822905     2.950900
O      2.175185    11.818333    31.993141
O     47.324589    27.355501    43.466160
O      8.077383    39.687413    12.225291
O     27.173623    11.145786    12.504054
O     36.709672    38.224138    26.661854
O     23.804155    35.605945    25.584300
O     10.879187    39.669820     7.704010
O      1.008889    13.276253    21.651536
O     28.933322    28.037181     9.432175
O     35.573668    54.792975    52.270606
O     52.656014    31.515053    51.892733
O     39.170395    11.619625    52.447720
O      7.976005    56.365965    26.859348
O     15.195002     1.604035     2.176163
O     39.140520    24.877948    16.320455
O     25.802506    43.081603    41.017855
O     56.189590    50.255885    42.173562
O     26.149583    25.764461    45.033875
O     17.948369    56.074842     5.835972
O     26.957099    19.636284    34.166829
O     13.852437     2.187751    16.779366
O      5.822111    24.104736    16.570306
O     43.809261     7.477881    31.380398
O     35.343913    10.499310    18.380225
O     28.832652    47.387795    19.714541
O      0.287846     0.438225     6.435748
O     54.664433     5.705981     8.040650
O     44.658935    19.939868    41.167645
O     37.812208     8.940957    36.866657
O     23.511837    27.751509    56.546253
O     35.766422    39.341909    31.777198
O     29.807741    34.125307    38.784133
O     51.995045    49.409557    50.962711
O     45.092017     5.086023    30.972116
O     16.987409    54.101304    49.197273
O     31.713443     3.187618    18.268785
O     48.487870    17.905595    22.484168
O     19.801804    37.111211     6.958433
O     43.525137    54.348042    24.232059
O     35.270988    41.630673    38.606061
O     20.413088    35.413409    10.407313
O      3.171560     6.657840    13.864408
O     28.241284    36.147485    38.012541
O     14.098699    30.124565    26.185408
O      2.076196    53.360535    13.486568
O     54.580937    35.006495    32.339202
O     42.512693    31.041012    35.168793
O      1.268002    43.304577    52.012866
O     12.468451    55.705872    10.783851
O     26.000385    28.491789    56.379541
O      2.540948     2.827268     0.768350
O      0.053710    53.484908    44.961300
O     54.947442    44.332195    27.423050
O     12.694712    24.437557     9.752922
O     26.369771    43.661017    37.195793
O      5.547375    33.458551     3.592796
O     14.210814    15.417390    31.838122
O      3.539889     7.524335     6.008758
O     20.534958    32.191553    27.711338
O      7.351263    28.527550    35.950506
O     46.729231    45.299439    50.267349
O     35.860487     1.464358    20.003483
O     54.396201    29.000165    44.256259
O     41.738363    33.828085    53.081706
O     14.701611    22.551353    25.130658
O     36.859518    11.500038    42.884791
O     30.981561    47.073168    54.624838
O     46.701682    49.754887    17.962045
O     12.473947    27.005080     9.312619
O     12.650219    32.570588    32.409591
O     13.375326    25.941371    15.620084
O     23.948886     5.684228    15.882952
O     20.972246    38.772828    16.381261
O     25.836749    11.930912    40.218175
O      6.891709    31.685328    53.943392
O     39.638717    52.555652    32.277154
O      0.399045    27.774173    16.463512
O     32.463381    14.068244    24.122278
O     29.756441    46.495283    39.163778
O      3.859094    26.289496     0.483204
O     26.018415    13.155959    37.271034
O     39.533292    18.955765    26.587502
O      9.651743    18.102259    14.967726
O     10.478563    49.865647    39.618713
O     36.807070    49.822646    47.729595
O      9.169120    43.303473    46.579214
O     17.966231    19.315139    50.002470
O     54.219990     2.642613    48.257345
O     13.114276    13.204128    27.605343
O      2.458327    40.021129    23.704152
O     56.257758    52.078225    40.225895
O     33.439652    35.273967     8.278831
O     55.690524    51.330756    13.152146
O     26.807456     2.060604    13.580468
O     43.824538    19.168834    14.707770
O      1.313933    41.821808    22.386829
O      7.833953     0.298974    10.516264
O      2.889106    17.828060    54.496085
O      9.085121    41.838379     4.264756
O     40.147439    18.189362    44.149887
O     43.367218    11.713233    54.806060
O     41.685380    31.334018    40.294151
O     42.955702    54.864291    37.644075
O     42.439188    38.188510    45.078087
O     12.284028    20.638044    21.100492
O     39.548965    37.545576    15.151390
O     29.841453    44.317317    20.022750
O     41.950942    19.354192    23.165224
O     50.284273     5.514921     5.059478
O     55.023905    17.246029    35.644445
O     25.849938    20.597686    13.820940
O     22.070740    24.003464    31.142063
O     52.742060     2.432163    26.056302
O     14.928304     7.939323    15.603917
O     40.427280    32.143355     8.325967
O     17.659157    52.149816    18.703507
O     42.112512    32.684132    18.275350
O     45.835366    48.826502    35.445077
O      9.963429    36.626012    40.742481
O     31.082130     3.725486    55.416949
O     21.555947     8.274627    39.878621
O     43.046773     0.159195    45.216459
O     42.535759    14.874350    35.555898
O      3.120037    19.175828    50.717725
O     53.902282    27.382167    34.629889
O     48.314016    30.669267    47.946309
O      6.596782    12.629587     4.272469
O     27.386381    36.051250    12.920914
O      9.030562    11.443569     4.566157
O      1.206814    48.289953    52.969517
O     41.586866    35.437220    25.140463
O      8.404616     3.500653    50.062803
O      2.699238    42.936340    54.960963
O     11.078928     1.817420    23.968578
O     54.402538    32.984099     5.785143
O     50.371481    30.775212    26.082131
O     11.550538    19.057094    33.727686
O      5.939249    29.658362     5.959785
O     12.114863    19.761561    18.730184
O     34.057681    15.100015    54.631644
O     37.509238     7.949816    22.485625
O     16.466002    41.127346    35.587917
O     31.496939    37.762033     0.675369
O     48.270597    35.011481    27.970628
O     38.617713    20.992367    35.018863
O     34.009285     5.353444    49.590986
O     56.355727    56.049105    24.931135
O     13.725848    55.338571    13.099180
O      6.575560    15.718911    49.080615
O     28.648612    18.914914    41.301726
O     48.927039     8.842974     8.243104
O     33.730381    51.874287     8.951918
O     21.292883    16.724868    31.323273
O     47.435034    45.508465     7.475726
O     40.958944    44.448745    25.519065
O     17.740249    31.403956     3.643246
O     49.175294    50.751804    53.977792
O     52.315898    42.215584    23.622982
O     13.311187    23.857253    50.320061
O     22.695401    22.961161     2.183994
O     12.687821    10.672575    32.121757
O     39.970884    17.606546    33.383820
O     35.842215    26.693604    10.015708
O      1.937048    24.701011    32.532981
O     15.705452     1.138401    56.261261
O     40.674084    45.976515     8.220145
O     43.829780    51.576415     4.293443
O     41.294886     9.856828    51.044505
O     41.687555    17.111730    24.381858
O     45.228877    24.460156    15.580809
O      1.637443    42.135289    10.464281
O     16.197466    21.768704    15.800662
O     35.231342    26.397199    49.712649
O      3.992105    18.212382     3.367722
O     21.015447    32.908296     7.530558
O     24.306535    13.088295    20.375852
O     47.209553    34.751431    30.365839
O      8.358661     0.869414    49.381889
O      9.664531    15.648405    34.979347
O     42.669126    32.870776    10.713001
O     10.629390    56.536458     0.259104
O     25.701862    38.584425    49.228725
O     55.028906     6.523595    13.580055
O     26.057012    40.130208    17.107914
O     44.855474    44.715474    34.972754
O     33.501629    12.968872    50.507412
O     17.714857    23.135744    14.243128
O     17.173822     6.441571     2.310401
O     46.884879    18.867462    42.163665
O     44.806076    23.951025    10.310218
O     20.727735    48.993281    56.249378
O     17.052696    29.777423    42.093150
O     38.787745     4.872946    46.416792
O     53.486124    41.974641    49.987322
O     49.306821    52.124110    36.872591
O      6.572868    54.520628    31.355170
O     21.169868     0.152783    20.674756
O     55.058392    47.908926    46.663326
O      7.586883    27.177657    43.000446
O     31.157184     4.292264    30.554020
O     16.370973    36.598168    17.811270
O     44.138217    37.657019    40.077210
O     53.572405     7.385574    51.387026
O     27.242193    36.962659    35.688857
O     22.374124    51.885984    39.245533
O     43.614413    37.417576    53.402028
O      4.231398     3.629828    47.309790
O      0.815364     2.817661    39.972624
O     48.355806    17.718555     6.463119
O     34.154178     7.939819    48.813654
O     48.658430    50.490844    12.891782
O     34.554209    33.078738    46.181037
O     20.638352    24.981785    29.191762
O     35.328402    15.647078    34.462610
O     36.243559    30.808202    42.070133
O     12.719343    18.666989    45.910698
O     52.556149    35.433536    18.749102
O     20.895096    17.375322     4.385669
O     48.899159    45.941657    51.445010
O     30.638499    39.547425    55.465876
O     30.605867    24.011263    10.563825
O     22.270223    51.826364     0.492897
O     25.256044    34.765752     6.219106
O     42.029652    47.977561    20.611736
O      6.742744    22.391978     4.562481
O     33.066006    31.947973    23.553074
O     20.910530    43.140049    49.279578
O     29.914349     0.393951    18.281458
O     55.988510    13.230696     6.391834
O     48.614629     9.383542    34.010639
O     33.041650    36.767682    29.525392
O     53.323694     3.019813    45.852265
O     47.407860     9.248546    29.143111
O     29.647002    56.382302    29.926752
O     15.890661    40.699344    31.274963
O     31.700092    39.496351    53.023096
O     23.681679    41.759442     0.646422
O     19.007213    31.686595    25.697100
O     36.443725     9.093441    45.092517
O     16.254896    54.985484    46.916444
O      3.778653    14.113908     8.411129
O     54.012397     4.078021    12.576856
O     10.623711    34.779278     9.678443
O      1.261638     0.952950    33.195911
O      1.116406     7.449607    40.892796
O     14.514109    18.168988    35.959227
O     12.337683    37.469717    13.570298
O     31.780063    17.811012    50.621173
O      2.858632    47.246983     3.153889
O     27.977507    53.209489    44.201066
O     53.544775    56.173984    35.435352
O     19.503181    35.737696    33.526274
O      9.875884     8.851783    18.464066
O      7.690006    16.287621    32.085513
O     34.304614    22.826809    15.701843
O     32.781054    28.178846    53.984239
O     22.966673    19.835564    48.887676
O     42.601478    17.060696    37.150719
O     33.424753    35.951466     0.798415
O     43.692497    26.525935    33.259388
O     29.333099    49.247091    34.843421
O     50.934453    44.530311     2.631326
O     36.681630    14.208915    42.975507
O     16.692270    12.012962     8.924782
O     15.889242    23.294108    22.842050
O     21.173688    28.594510     5.047823
O      3.178955     5.779909    21.202213
O     24.754897    43.590278    19.929516
O     25.138464     7.422749    33.687631
O     48.280244    50.372371     5.088218
O     11.572858     5.138068    13.868305
O      3.131686    31.974793    49.305219
O     28.714467    46.682110    51.687463
O      2.118137    51.826321    48.539486
O     46.052719    28.921355     2.172188
O     56.326185    37.463379    15.660938
O     18.662368    45.152646    47.044477
O     36.910279    11.169765    53.732816
O     21.972380    13.322537     4.731205
O     44.371451    13.257434    28.235585
O      6.901916    36.911363    24.612955
O      1.102114    45.379419     2.682234
O     29.468517    52.500235     7.138581
O     50.245235     0.779121     3.068928
O     43.813096    21.739513     1.068694
O     33.180890    31.858698    31.262093
O      9.577262    20.130097    52.913544
O      3.398537    23.363673     4.702034
O     42.201367     5.326274    23.724322
O      3.244361    30.478421     2.254063
O     31.275821    30.603019    44.565116
O     45.849474    31.415492     1.572635
O     26.203114    17.576440    37.399223
O     53.290370    22.821751    30.567062
O     52.396671    53.976243     5.948358
O     25.461254    24.199482    47.165711
O     23.588340    25.997179     4.476396
O     27.396443    49.578006    10.705235
O     10.845380    38.607845    20.122233
O     26.435026    46.793010    23.390022
O      3.626419    51.758128    18.093218
O     20.904649    42.616030    45.343136
O     29.867250    40.527045    23.990553
O     37.505171    44.785186    28.950993
O     24.637303    25.040324    38.417299
O     43.214145    12.768149    22.357930
O      7.821762    54.935027     8.861058
O     49.130848    42.500855    36.254979
O     40.549853     7.939747    52.807939
O     40.572761    29.557703    16.699740
O      2.794696    54.983135    15.427912
O     53.893438    12.637717    12.450767
O     54.825438    29.463799    30.209074
O     31.607929     8.094248    27.834697
O     13.685171    25.655584    40.112259
O     38.418217    41.258437    33.732324
O     50.060402    41.316361    12.082918
O      3.747899    43.733711    10.406839
O     52.643279    53.690110    34.802437
O     33.370600    29.132598    31.080296
O     40.645180    56.488402    32.452669
O     44.102967    17.740580    23.697028
O     36.484216    50.964667    45.315817
O     37.781615     6.357244    34.731750
O      9.760507     6.502060    45.825178
O     20.384762    21.971802    43.455989
O     43.307485    42.513330    56.320088
O     28.055938     9.273342    15.279316
O     52.656457    51.803025    16.570504
O     14.832386    42.346912    25.413716
O     32.137612    13.672040    16.002217
O     31.795977    13.261444     7.810774
O      7.676654    40.535611    14.689169
O      7.719057     8.568625    29.604768
O     54.811334    36.290662    53.338341
O     11.601648    51.816262    55.794239
O     52.682264    30.616811    28.163542
O     33.314606    35.806018    34.287222
O     18.114198    35.841424     2.125229
O     34.647588    34.991438     5.897663
O     43.693335    40.905878    29.601360
O     32.070889    36.050622    44.959235
O     53.187708    17.366253    40.617437
O      2.764458    22.805023    40.639990
O     33.021401    29.562431     6.927930
O     27.792495    34.759013     6.587621
O     47.701914    12.132813    11.711066
O     32.730375    41.776665    20.180197
O     52.340684    34.271548    10.427059
O     24.672488     3.951301    39.303623
O     15.972678    39.809403     4.262799
O     55.467876     4.353639    49.916982
O     36.488868    34.749276    46.737597
O     13.340383     1.972507    49.354462
O     54.549223     1.551259    31.448358
O      7.321757    18.786525    13.932281
O     52.417866    33.483326    15.481228
O     47.332050     0.373517    52.058889
O     32.706224     0.945885    38.471439
O     55.488671    25.307275    41.786792
O      9.804791    52.593291    49.404874
O     49.643922    33.302213    44.859476
O     32.761495     2.485799    40.568961
O     30.853349    32.532175    31.966502
O     35.633282    14.767940    15.225114
O     17.360097    27.325305    52.076794
O      1.967542    33.085057    54.373113
O     33.283298    12.133485    35.346720
O     11.475910    40.738054    56.319299
O      2.217875    54.462572    48.518324
O     27.312315     1.301051     0.719502
O     20.131251    49.487098    11.890523
O     28.818004    23.300232    25.580720
O     11.277383    43.929451    48.070673
O     49.449281    15.100500    44.450606
O     49.009303    39.837273    36.814885
O     54.645602     3.828903    27.360121
O      0.294838     8.502312    13.469261
O     51.262070    46.654840    31.997098
O     19.732980    52.544479    25.275861
O     50.615384    15.213564    36.698635
O     41.341091     0.855126     4.165748
O     38.896024     6.712455    27.458607
O      5.030752    37.388950    26.445828
O     27.899909    27.308286    28.726345
O     37.133826     2.811591    43.148997
O     39.222434     7.003832    38.008377
O     34.555226    16.848045    16.620870
O     27.652913    38.064048    44.798301
O     51.121238     5.234296    30.697823
O     55.238300    18.273904    50.584794
O     10.795168    13.025281    46.017932
O     33.974116    16.728734    46.139520
O      7.059574     9.418622    44.846064
O      5.739054    27.071448    55.459216
O     14.859921    17.379863    33.435648
O     32.653609    27.497144    42.416383
O     29.738511    22.790647    33.348246
O     29.766940     6.970179    47.942965
O     40.641973     8.156330    44.874674
O     15.013892    43.490071    43.600858
O     16.230067    30.208972    36.013286
O     29.845832    55.015863    40.223136
O     14.350815    26.734129    46.900670
O     38.395601    15.203772    37.723156
O     52.589237    35.308210    51.830452
O     21.687609    26.453416    36.124464
O     10.062915     8.173405    40.766775
O     23.994152    44.323440    51.608316
O     30.360794    29.850416    51.169242
O     45.951714    11.849932     3.655543
O     25.590271     8.380278     7.522906
O     15.887559    42.505935    33.355042
O     35.098769     9.458251    15.992767
O     42.800589    36.557109    55.745813
O     15.365934    36.281499    43.432094
O      9.063207    52.031989    39.385372
O     14.959302     2.981190    47.529019
O      7.218393    13.996476    33.466338
O     28.200131    37.328741    10.746589
O      1.124595    30.023867     4.019162
O     19.140035    29.045475    43.769354
O     16.833268    22.102147    26.489946
O     23.513020    14.672517    34.352728
O      0.766900    28.413200    22.107090
O     23.879994    14.929886     3.953639
O     12.532573    34.601205    20.807661
O     42.269896    54.262587    49.391319
O     49.466668    16.313777     8.305664
O     42.228106    52.977846    54.048659
O     37.265366     4.605382    17.252794
O     15.967576    36.469960     3.428890
O     55.632003    52.529313     1.182790
O     48.041690    19.975183    20.874295
O     33.004448    10.086451    56.589345
O     50.924431    24.821522     0.519445
O     42.021670    12.044727    13.944314
O     46.330761     8.609125     8.844377
O     24.838969    13.254679    42.200169
O     39.378661    43.932559    20.458924
O     43.311707    14.540001    17.957295
O      4.659692    42.885242    48.439716
O      6.748675    44.349856    52.827216
O     21.345696    42.994156    36.478446
O     25.631495    27.337820    30.123738
O     24.282981     0.465511    23.947356
O      2.299478    10.387024    47.604558
O     13.549090    52.153061    45.870288
O     21.037730    17.380150    16.823699
O     16.372769    26.413647    29.768334
O     15.697433    54.623428    52.714123
O     14.345815    24.531631    37.824868
O      7.026712    45.564421     1.337920
O     42.273806    32.129733    23.184912
O     31.655371    17.666415    47.049199
O      6.673701    48.604706    45.840248
O     42.857697    31.405924    30.249837
O     11.212225    37.579358     9.213146
O     18.228766    49.706615    28.347928
O     34.839928    21.588888    46.690496
O     20.764706    11.982494    49.538549
O     31.146349    34.580447    50.296593
O     37.063071    28.887853     9.713752
O      9.842578    28.293480    42.030058
O     14.016658    54.273789     6.605872
O     38.356699     3.468847    49.606128
O     31.540539    28.212311    49.192981
O     14.706503     4.882181    45.540340
O     27.743709    42.703114    42.877220
O      7.115236    26.154966    11.584514
O      2.826683    46.421235    19.126400
O     31.584388    10.003074    21.569341
O     51.030306    40.592130    30.456116
O     11.709328    27.603689    34.544337
O     54.166365    45.207717    20.347115
O     25.629498    28.506059     6.680193
O     53.773220     1.672799    14.418271
O     38.896415    50.842643    46.409950
O     30.374882     5.379063    13.541785
O     50.051134     2.021325     7.411446
O     45.794861     4.356979     5.996386
O     29.502229     7.277597    18.713940
O      8.270022    48.921005     5.480596
O     25.972566    17.342762    16.232069
O     54.747533    32.874683    23.967898
O     18.404202     1.395395    50.292587
O     19.649887    42.302140     4.107854
O     34.679193    49.650458    44.020355
O     41.173057    42.533663    19.030744
O     55.357093    43.862497    52.655343
O     12.687195    23.655098    16.773160
O     13.396951    12.624872    25.171308
O     44.927019    48.994839     8.575690
O     45.573612     8.277126    21.852828
O     32.562357    37.386605    54.155972
O     22.707302     3.193072    29.041841
O     54.192622    16.042507    33.382997
O      9.108254    41.456311     6.774507
O      0.962127    11.811407     4.780978
O     10.229114     9.394555    25.491008
O     42.911428     8.892105    17.716780
O     48.292471    54.603643    29.478748
O      1.152844    39.070319    21.716293
O     28.722982     0.523895    41.326782
O      3.977117     3.682809    39.878315
O      8.655510    37.453723    44.986741
O     25.323630     5.051504    11.119998
O     47.689276    10.554234    16.651111
O     22.613743    46.212787    33.169022
O     20.105375    18.717424    47.138840
O     43.437775    23.202249    37.451507
O     53.648773    17.878574    26.074407
O     27.017754    52.339555    19.934638
O     11.143052     6.533457    38.917677
O     28.190296    24.902762    37.117423
O     53.198267    17.727886    11.434605
O     32.472150    12.248160    44.792389
O     55.131029    12.949119    31.492811
O     37.393333    45.942859    42.180122
O     19.823526    22.862210     4.279904
O     24.444296    46.434100    20.092569
O     40.048303    47.460239    29.516710
O     41.312188     5.790804    43.793947
O     31.054149    17.076054    31.771391
O     10.108575    10.167064     2.665544
O      5.536489    45.136470    27.825507
O     53.078451    55.124548    10.893370
O      7.836049     3.992852    23.629090
O     49.350483    45.158193    36.172500
O     33.432332     0.886535    36.000142
O      2.543449    40.001387    15.046592
O     30.074337    22.367723    40.162390
O     30.118403    29.868159    31.452984
O     56.226240    38.655370    53.259615
O     31.864244    42.581089    45.190192
O     33.882700    43.194183    17.553163
O     53.897700    45.990539    52.012204
O     33.550421    38.327087     9.228161
O     14.348574    39.730852    11.189084
O     51.675054    14.055987    53.912811
O     35.653169     5.316168    28.111313
O     46.253276    14.181617    40.134834
O      5.903740     4.115917    49.376658
O     10.522760    20.428163    11.058796
O     15.659836    27.903677    37.118504
O     35.759470    41.477266    27.503389
O     16.144513    21.110770    49.082619
O     38.158277    55.312081    44.100014
O     44.868788    28.247995    19.529043
O     20.141411    32.830746     5.147977
O     27.311939    29.468592    13.751479
O     33.612541    39.492379    35.143909
O      1.651926    55.458735    23.249185
O     22.711093     3.606445    37.624934
O     53.251989    21.662124    45.006171
O     33.967662    20.856393    36.880087
O     21.626190    15.710757    55.126151
O     19.433714    31.604837    17.351647
O     11.011270    47.051253    51.642525
O      8.029862    23.001071    25.265041
O     12.695510    28.502377    15.666843
O     42.064071    22.629140    32.764336
O     51.005697    10.560751    44.516008
O     52.777942    17.330930    16.453071
O     50.049333    51.714706    10.933600
O     37.907007    48.851737    21.620777
O      7.685320     2.953639    39.268312
O     45.155286    27.896443    42.109208
O     41.143275     3.042205    30.018353
O     29.148211    42.930116    23.111026
O     15.137471    13.944631    49.814022
O     37.865381    47.676202    24.997295
O     28.774107    52.457065    52.979448
O     36.054093    38.874613     8.795071
O      0.226579    17.481437     8.258587
O     49.209789    22.887944     8.494730
O      8.515474    40.088029    30.839889
O     37.660941    35.807203    24.509447
O     10.051552    32.456025    13.328856
O      0.580926    52.583871    35.524347
O     35.390010    56.563337    17.925549
O     28.386774    22.396619    38.262074
O     34.462663    28.180567     5.254320
O     49.941032     9.291204    28.329255
O     40.050938    13.573861    14.486315
O      6.160313    15.915975    15.076610
O     18.784516     5.388972    42.733683
O     33.084509     2.958684    31.860320
O     31.676208    51.384614    23.686285
O     43.239731    12.549128    44.150103
O     18.517180    54.705698    42.514359
O     18.436213    33.479281    45.202065
O     31.411366    53.388170    36.170343
O     46.825616     1.664545    17.212105
O     24.730022    21.153957     2.244275
O      6.360262     7.937019    24.437214
O     32.271714    33.061045    38.201850
O     41.766537    51.613381     5.923493
O     14.366075     4.474663    49.469091
O     37.311558    51.415313     1.494270
O     48.713987    17.851670    40.567672
O     39.271581    38.397837    55.092816
O     12.190830    31.712737    48.176653
O     22.443869     7.048944    17.556369
O      0.181116    32.867491     9.178458
O     12.807498    47.565862    35.519085
O     14.201656    36.652654    53.386171
O     32.737783    38.111698    43.318010
O     19.569910    24.949109     0.035176
O     12.415146    39.971941    21.806956
O     18.818075    16.878907    49.815895
O      6.961629    21.406259    14.064383
O     18.927906    14.249046    15.307239
O     39.077539     9.503249    39.091819
O      4.590575    23.578800    47.616293
O     55.900888    12.820644    33.979277
O     22.695556    20.037829    20.752131
O     20.878565    51.505033    30.413721
O     52.799007    47.009179    47.666061
O     10.189686     7.367925    14.008679
O     13.708028    44.922476    47.425747
O     16.297938     2.813340    45.372733
O     49.635053    37.528991     2.469881
O     39.426560    18.624738    55.130700
O     49.804984    42.382053    25.976720
O     36.062334    13.671760    19.283293
O     14.773081    55.186365    31.740590
O     22.522400    55.944177    45.781139
O     34.836911    53.937166    16.198127
O     24.648060    23.328550    31.644575
O     56.037121    12.923718    47.488448
O     56.424485    53.295868    37.922098
O     36.106222    36.835777    31.307457
O     39.458502    25.530286    51.486439
O     22.894529     2.238313    13.115714
O     41.795670    48.339394    27.762090
O     33.682581     9.315671    20.089399
O     30.749448    48.249891    52.341551
O     40.348596    53.541160    50.920230
O     29.793304    31.273773     0.683398
O      3.460252    21.576186     9.087839
O     24.386934     3.490460     4.336773
O     47.553786    18.683133    52.373237
O     49.385854     1.284822    35.598933
O     20.455191     4.914301     1.646208
O     35.953869    44.334980     0.580554
O     13.481208    50.178091    25.908524
O     54.064713    41.237839    18.616539
O     11.211422     8.448183    45.003983
O     30.899041    49.386343    50.048114
O     29.784161    10.364964    16.913294
O     56.078666    22.714104    34.930438
O     30.045607    18.349648    12.230607
O     53.639022    54.507480    25.012659
O     49.668273    17.854678    31.816786
O     10.264687    25.405232     9.181226
O      1.223441    36.779019    17.767540
O     44.839207    16.721844    54.191859
O      2.759039    46.791097    12.418483
O     46.120714    11.045607    50.884993
O     25.247873     3.205908    55.512520
O     13.623883    48.440201     2.498048
O      7.854690    12.098670    14.643656
O     55.139206     1.209343     8.218281
O     51.482481    12.720556    36.120904
O     18.087949    25.885672    46.846025
O      9.989121    28.543754    21.852790
O     34.376499    33.597951     0.200225
O     35.472667    33.427696    41.637859
O     43.073774    39.842506    40.896331
O      1.777805    50.009573    30.365386
O     55.514225    43.287101    31.093494
O     38.421684    30.225732    12.455760
O     52.067870     5.930288    23.213989
O     32.284382    50.029264    10.017740
O     33.827481     6.937627    27.182521
O     23.296023    20.167323    13.677105
O     38.214791    43.973372    46.701497
O     12.420684    54.866757     4.640947
O     56.079368    36.714368    23.886246
O      7.223063     7.135314     1.521701
O     52.598960    12.610961    17.300350
O      2.746994     4.534206    26.186706
O     53.664649    56.583193     3.191859
O     18.061084    12.217478    52.665747
O     40.117422     3.931067    23.467814
O     11.018208    53.411008    29.960518
O     41.797314    10.976717    27.665502
O     39.129258     8.358874    50.583607
O     56.320007    24.816297    31.143913
O     56.582683    45.367650    25.794263
O     32.357018    43.702348    11.108634
O     27.640240    47.062762    49.321444
O      1.646742     2.081609    35.473454
O      0.429333    39.056379    42.030687
O      9.421885    32.459430    53.688964
O      2.921568    13.977439     0.741039
O      7.668428    27.191729    50.560283
O      7.003676    55.426542    33.708624
O     48.109185    16.541452    42.676538
O     31.640439    52.174957    27.314101
O     54.769340    42.051522    24.519096
O     46.204867    15.700090    45.739703
O     35.528405     7.548723    14.181147
O      6.754751    10.050854     4.770104
O     42.527598    23.217507    47.021572
O     28.163384    38.598582    48.412089
O      5.943739    20.493060    38.207305
O     55.610409    27.032795    29.763209
O     47.439774    52.247654    28.669039
O     17.090585    40.509206    48.240097
O     39.756370     4.586233    34.156304
O     29.408812    36.361924    15.667295
O     37.234356    42.379609    49.263273
O     16.266654    54.557940    38.195635
O     35.514404    34.117487    34.225986
O     26.698508    50.600380    18.004900
O     37.419355     7.121806    46.481242
O     41.264596     5.661853    21.323354
O     23.186889    41.021311    44.975036
O     34.030945    13.947517     2.522951
O     32.286602    25.584676    54.030422
O     51.104253    30.104776    17.888913
O     38.986067    26.506757    32.384322
O     19.592091    37.291696    51.400901
O     34.512944    27.685868     7.928385
O     44.054406    39.578879    16.374142
O     32.377258    50.730403     5.207234
O     10.793718     2.705524    45.787334
O     29.304884     5.110740    45.958100
O     46.208095    54.441368    54.967233
O      3.550050    21.514419    51.699398
O      7.490546    35.846658     0.628811
O     38.003497    30.521167    31.490489
O      2.021859    24.315683    30.016577
O     44.438121    38.331602    26.629266
O     47.365003    52.205936    17.025502
O     39.387687    21.323193    10.518345
O     49.339447    11.023384    14.637375
O     45.438431    20.196375    38.669074
O     18.460349    34.752748    51.196285
O     46.918469    26.045034     5.733753
O     37.772840    49.649439     6.015879
O     39.577230     4.159706    13.043463
O      5.453177    13.964542    13.278557
O     11.991267    11.387548     0.375960
O     23.522412    21.807922    23.763926
O     49.048902     2.904809     2.054658
O     43.120971     2.687940    19.688572
O     39.342528     2.789726    17.099782
O     43.133390    27.607769    40.480861
O     21.206912     9.436180    49.347059
O      0.961534    21.127532    27.062013
O     45.231078    48.903696    26.829068
O     21.949789    11.521859     8.620415
O      5.282556    11.361488    21.711585
O     26.154249    52.906461    23.322523
O     24.333810    55.462621     8.555732
O     15.404384     9.939450    38.670044
O     53.994466    21.855216     9.416196
O     54.250172    23.884885    15.797048
O     28.160398    20.167342    12.623924
O     17.939781     7.479285    43.907519
O     41.166270    25.084375    22.766276
O     13.494768    47.210534    23.096432
O     34.311948     4.035768    14.275974
O     46.237175     8.815728    34.867244
O     23.980252    15.375676    51.107761
O      3.803333    13.545361    32.997101
O     36.855050    29.425186    56.482031
O     50.466912     1.768701    40.176957
O     12.941193    40.466861    25.729651
O     42.101436    55.751592    27.459054
O      7.520689    32.803216    17.237784
O     34.794158    45.978614    42.613710
O     48.341298    54.398616    12.387859
O     12.977249    19.514158    28.839866
O     48.149597    20.919778     1.519047
O      3.577270     0.530155    19.133774
O     30.119701    10.683985    42.086319
O     18.911986    46.624522    39.454533
O      2.190857     5.715659    53.363058
O     11.161593    26.057681    30.334369
O     42.388002    40.049611     7.123224
O     50.647674    29.334984    21.103117
O      3.403731     5.221452    33.744932
O      4.683934    31.236883    32.875466
O     35.049180    37.979813    17.844824
O     47.828555    36.312354     3.921944
O      6.619077    15.736840    19.748236
O     10.768135    23.103571    36.695821
O     14.643881    47.234970    30.625349
O     35.349318    19.084967     1.205858
O     25.202748    46.687597    41.501201
O     33.643969    30.617172    29.078870
O     52.161215     9.319021    21.921153
O     26.863630    44.285534    23.569406
O     38.043212    26.135382    14.271690
O     36.388803    25.073318    25.589761
O     44.738207    27.589865    14.417611
O     19.623535    47.143324    21.924622
O     31.823704    42.109038     3.291559
O      0.778198    53.929596     2.552724
O     34.828017    23.814307    10.827500
O     10.597775    42.004081    11.448719
O     24.941305    14.212069    39.483571
O      2.767696    49.872924    22.721601
O     56.525856    26.229102    11.882209
O     32.528037     1.853621     0.088704
O     51.235377    12.031420    19.477613
O     26.105633    47.348854    45.415110
O     20.327448     7.978243    52.878656
O     49.125148    55.668117    53.620558
O      2.632178     7.698931    16.439024
O     28.374313    29.015957    52.495243
O     49.819593    10.421803    12.179783
O      5.943875    15.157310     4.563648
O     30.510518    53.503657    22.961195
O     38.114950     9.379332    16.929008
O     43.632416     8.843217     8.352136
O      0.793261     5.951454    22.207066
O     39.290292    49.196093    36.463764
O      6.246347     9.840527    35.901089
O     45.294932    55.873603    44.089484
O     25.660152    35.389829    52.136760
O     23.851811    52.393215    31.594193
O     47.406168    10.798437    36.066506
O     28.757844    18.105982    32.828041
O     47.303088    56.041579    14.122743
O     46.861089    23.837635    41.360237
O     19.995865    48.314669    16.315804
O     11.645649    13.574169    23.003257
O     35.353024    28.112609    42.287898
O     45.719794    41.783681    48.477119
O     17.589799     9.616559    12.090060
O     17.675136    20.522170    13.950883
O     40.586107    54.023138    37.901141
O     43.976183    28.229956     7.470642
O     49.780711    26.306150    47.845421
O     56.235790    17.435725    20.214795
O     32.397877    27.723962    20.973672
O      3.777850    52.236923    11.985502
O     19.146929    42.264118    17.765592
O     29.164209    22.392472    50.931077
O     26.362213    10.479555    35.561304
O     10.678648     9.376038    22.943829
O     26.839262    36.361677    20.151203
O     46.245057    45.211075    30.246304
O     19.642474    46.190800    55.045972
O     49.330310     8.546090    48.367776
O     38.940946    13.916654    48.794567
O     12.651329     7.224036    12.829021
O     46.385639    41.911806    43.663907
O     22.325343    50.529336    12.922040
O     53.272527    49.845897    56.440967
O     53.004036    39.767906    23.154841
O     37.409311    15.103084    23.252657
O     28.295235     3.058113    50.917285
O      7.147617    20.100059     3.309110
O     20.182596    55.407588     7.144353
O     31.514718    14.285836    55.062679
O     48.459483    37.061354    26.119896
O     27.569410    27.028411    49.027006
O     22.986043    21.200495    36.986793
O      8.981298    20.044869    30.079854
O      8.625797    13.590005    38.318232
O     13.367652     0.458273     0.497617
O      3.176746    43.984874    50.307341
O     21.842151    41.478122     5.266288
O     31.905877     8.682358    42.340464
O     14.487374    18.500812    40.758978
O     26.271770    55.475552    23.488913
O     20.047115    20.647557    11.477292
O     35.936410    22.130528    44.455997
O      4.160701    11.640048     7.850576
O     40.938374    30.319226    24.740082
O     51.613857    53.915797    15.552546
O     56.216330    50.306112    53.332166
O     55.621973     5.992352    28.451217
O     42.079895    21.157985    53.062916
O     17.813200    21.045504    38.640070
O      8.041508    33.392760     2.380951
O     47.244165    22.143671    19.404908
O     46.131154    51.122286    43.447720
O     25.593822    19.533146    55.182024
O     42.106417    10.286079    41.104966
O     54.472209    50.724995     8.376100
O      1.143368    10.168669    30.105669
O     54.262623    31.619229    56.372737
O     31.320241    23.899644    26.064748
O     55.845196    25.136023    23.792097
O     38.242887    24.207904    45.506197
O     17.119664    13.912593    38.345863
O     21.481917    29.070201     1.103137
O     29.019364     2.673554    33.744027
O     45.896220    44.615096    12.396619
O      8.225647    54.761467    49.050842
O     12.158199    19.867135    52.658222
O     20.176638     9.824068     1.282840
O     54.081392    54.668303     1.262868
O     29.719547     9.829934    33.255327
O     51.023631    24.615330    40.725351
O      3.584791    27.880026    29.084023
O     47.239402    24.061669     7.340576
O     55.919700    50.615336    23.333580
O     39.110744    34.351408    49.718701
O     14.794448    17.885385     6.840412
O     23.654588    23.343722    40.144839
O     33.506885    53.294701    24.214700
O     41.312237     2.736935    35.137678
O      8.894996    49.389532    12.625864
O      4.040623    17.007356    26.493129
O     28.097788    42.813191    18.706241
O     49.623022    16.441483    27.924474
O     34.722073    48.680062    34.510604
O     33.802538    25.486406     9.119822
O     39.432012    45.142234    33.790810
O     35.232206    46.221297    30.585595
O     22.204513    35.862816    14.716652
O      8.088133    16.017478    39.237369
O     25.870577    23.018900    10.661127
O     16.412730    21.729206    20.783344
O     19.788804     1.682241    39.395881
O     20.540103    46.364858     9.415444
O     48.236800    22.031015    16.862156
O     25.863066    37.993583     2.939186
O      4.303167    44.884591    54.324406
O     12.553805    11.792704    47.501499
O     55.022210    25.746687    37.778216
O      9.650655    46.150325    49.546401
O     17.686884    31.209180    19.158960
O     28.549532    11.352044    54.943949
O     24.891231    32.120733    21.955481
O      1.645957    21.333813    35.631327
O     12.381278     8.353366    19.374166
O     46.416815    51.958827     4.370023
O     33.260548    48.575477    40.962324
O     24.777842    19.747356    38.232232
O     23.168094    16.090409     8.863759
O     18.877584    52.294253    28.949963
O     19.963775    10.158537    46.365342
O     15.395330    34.253484    45.136304
O     31.727872    23.735010    34.931783
O     48.305526    41.225248    21.991045
O     38.193603    56.283573    31.696649
O     32.245734     5.875024    23.135620
O     54.006903    17.285769    38.109763
O      9.587905     2.704608     6.842631
O     10.870542    54.003068    54.549576
O     38.943322    37.311537    17.601380
O     41.488675    20.713819    46.742940
O     32.009627    10.494212     4.601096
O     34.344577    43.554333     9.573485
O     13.866471    33.302802    52.285986
O     30.250280    37.722644    44.134755
O      2.910556    46.328085    52.768411
O     10.445164    34.783663    12.398329
O     43.429799    54.257562    10.587160
O     39.960777    50.037374    50.660766
O     39.977433    49.464714    20.227121
O     55.223846    27.546232    46.472132
O     32.428694    14.831776    45.114005
O      5.338797     2.286505     9.865746
O     51.467366     9.126522    42.429468
O     53.622317    34.388693    43.949021
O      0.300390    12.359390     9.652936
O     14.265691     6.816910    20.342356
O     40.683724    21.652571    22.582857
O     56.445518     6.994935    36.285489
O     35.140787    41.096125    29.967946
O     16.898838    23.052962    32.250334
O     49.040865    39.827082     3.485019
O     54.769311     8.839205     7.329637
O     25.992716    12.130981    44.467639
O     19.230398    10.726214    16.097691
O     49.674060    34.857555    18.747194
O     35.873371     6.912146    16.685052
O      8.687287    24.737828    19.609443
O     55.327881    56.294234    55.609752
O     46.181341    30.061821    21.029692
O     15.883664    18.555546    48.481772
O     27.733572     3.612186    15.667713
O     16.069387    41.124484    43.034928
O     23.458495    44.116051    31.726220
O     50.510975     7.907547    35.218144
O      8.942685    43.042304    52.240155
O      1.318862    14.620677    19.422720
O     32.910269     2.930538    49.271031
O     43.313387    38.035744    50.842826
O     48.752221    12.739201    22.981071
O     15.788336     9.179093    28.270110
O     49.723300    42.865837    47.370926
O     32.324712    45.228301     8.967321
O     22.515286    27.837873    47.491032
O     37.776391    37.917029    33.060797
O      4.669093     5.344308    36.084756
O     55.105807    43.284522    17.308055
O     30.223475    47.292179    46.160769
O     16.137394    17.253808    42.275312
O     46.449681    29.788512    30.110947
O     52.546280    56.009636    14.281433
O      8.907502     2.778241    47.632367
O     48.258858    24.712486    32.745244
O     32.400650     4.998884    15.831656
O     48.719091    28.991577    17.604668
O     49.300138    34.134464     7.475097
O     36.632073     2.379539    32.372447
O     46.093326     6.432922    16.959190
O     25.998914    19.157285     1.197897
O      6.700941    46.196895    22.586659
O     50.540382    42.110414    18.933337
O     52.317680    41.147366     2.641122
O     47.230229    37.264551    28.429038
O     22.395834    12.755308    32.867255
O     54.351453    15.172968    39.663459
O     15.188169    34.874991    22.670401
O     44.361541     0.006870    28.420827
O     18.193864    52.821205    53.809414
O     24.216222     8.038917    23.525997
O     27.111793    47.941681    34.043167
O     43.450756    36.599517     4.089286
O     24.472434    53.472182    39.249287
O     33.977964    14.415576    36.320617
O      4.728471     2.150470     2.176554
O     19.158358    14.015987    36.710840
O      0.739464    10.989791    38.222053
O      1.123645    14.498783     5.051350
O     23.669003    34.231374    50.674532
O     34.444381    55.769881    23.993948
O     22.782083    29.400825    36.049781
O      2.009435    55.976137    40.703078
O     47.931374    42.586573    24.232132
O     13.484043    46.238196    32.605120
O     14.085433    35.932363    27.514664
O     32.616583    36.585189    49.921961
O     32.013314     4.678813    25.470303
O     27.001760     4.411191    27.812074
O     13.788638    17.870863    52.993846
O      9.682691    54.611476    28.029874
O     10.765378    50.182205    26.104378
O     35.275683     6.107748    35.661897
O     14.326430     5.396473    15.714609
O     43.913933    25.687379    51.751238
O     52.893590    31.678531    37.022896
O      7.995592    18.163826    26.218453
O     53.534831    21.632005    37.401009
O     50.881654     1.397687    30.990865
O     40.222989    29.454932    36.342936
O     46.022124    33.688142    35.690174
O     27.176019    47.534224    25.828524
O      2.739344    29.257769    20.740060
O     19.433203    30.430008    38.296041
O     32.043059    29.767912    39.293021
O      6.432332     6.844250    19.538877
O     13.864732    46.925246    40.177958
O     48.275282    33.269518    12.951012
O     35.169164    21.579243    17.779710
O      3.436753    43.209018    21.651827
O     48.240874     7.430393    12.694835
O     54.063249     6.632420    16.532523
O     33.786608     0.739991    30.651063
O      2.745214     8.948357    45.559271
O     14.051266    20.470503     7.236863
O     42.540907    34.766341    22.820785
O      3.160155    56.158704    26.246955
O     17.714625    11.978816    23.106117
O     10.354358    32.477047     5.236232
O     51.173313    22.905050    36.587581
O     32.545762    28.489944    51.438505
O     52.778008    17.088676    44.490272
O     34.857494    48.818211     1.478737
O      4.264062    30.602877    44.220079
O      3.171931    13.419040    36.574038
O     23.264590     0.207193    33.178000
O     56.267694    23.105345    11.429665
O     31.136775    13.677981    43.164434
O     38.644852    54.612941    49.092555
O     25.974221     7.804899    18.300324
O     28.087351    13.615713    53.356207
O     54.692692    28.270971    51.375339
O     40.700602    31.491607    53.803612
O     28.861326    53.666252    55.288074
O     29.152630    18.230348    46.375749
O     31.045356    16.107109    16.159706
O     10.685778    46.149671     2.040599
O     39.367109    16.540418    14.754046
O     24.613051     6.701987     0.189416
O     17.563117    27.592105    31.842585
O     27.855821    28.536996    30.988881
O     34.638742    27.466455    32.435600
O     20.770456    28.207519    31.597101
O      9.518548    31.974529    48.420197
O     20.396336    48.202561    41.084427
O     29.473493    38.906486     6.412620
O     22.828176    23.972762    15.734265
O     51.833221    39.940118    51.646038
O      7.680498    37.340719     2.936779
O     52.541647     4.882905     3.936917
O     42.618167    22.137548    55.432808
O     54.394895    24.275436     5.045041
O      2.315419    49.517517    25.306257
O     42.185291    35.703524    32.585467
O      8.000414    28.370671    52.752017
O     46.210441     6.756785     4.813525
O     34.999296    33.827207    48.657071
O      5.693307    53.155477    13.589198
O     11.691110    19.670231    15.376390
O     45.119118    31.206528    43.862981
O     51.630710    44.829706     5.167021
O     14.035076    33.289387    56.437075
O     52.880245    33.365953    28.277084
O     31.922994    15.801762    41.774843
O     40.247748    34.308195    41.423019
O     31.633807     1.545330    54.225915
O      4.499701     0.273387     3.913063
O     21.829258    47.985652    49.666891
O      6.703352    23.876036    54.788856
O      0.518355    16.942104    53.521593
O      2.424012     1.147696     5.194192
O     35.018509     9.634780    47.130197
O      6.972980    34.245439    36.106546
O     30.774161     3.040121    52.286984
O     10.292155    27.460397    28.196234
O      8.642020     9.147565     0.682802
O     37.596583     0.359728     1.166324
O     16.298847    43.301560    21.259870
O     30.394913    28.409268    43.454773
O      3.858343     2.323092    12.123030
O     32.530770    37.851908    46.592596
O     50.247478    56.135669    48.592770
O     18.589919     7.676587     5.074064
O     20.999917     7.326762    47.736744
O     42.156027    31.918158     1.650877
O     11.949152    52.586939     6.991981
O     44.157087    21.670939     9.006672
O     17.496555    18.538112    20.407587
O     24.351245    33.341509    15.857850
O     30.351528    23.061277    13.067515
O     12.388270    13.851760    11.761186
O     21.690726    33.874727    16.168884
O     34.899627    27.891239     2.614804
O     39.446261    26.195052    34.922261
O     45.261438    28.652596    44.619022
O     41.020628     6.959767     1.381007
O     24.863124    49.508701    13.114123
O      4.500180    21.109450    48.372691
O      3.473350    48.708196    51.972672
O     24.241913     7.435281    10.945693
O     18.278427    56.498118    15.051018
O     47.988477    20.778763    53.747509
O     35.403946     2.888457    49.656237
O     36.331376    13.176534    29.342398
O     52.497744    14.544451    31.830496
O     54.858131    42.683436    20.568217
O      7.961544    55.950735    56.156941
O      6.198928     1.629088    27.670493
O      1.856790    30.513037    12.060982
O     51.686253    55.192593    54.082137
O     53.442008    14.715784    15.906545
O     54.588235    35.387459    27.931064
O     13.362571    45.270261     3.863122
O     18.837480    16.502581    40.590798
O      6.036164    44.206555    32.658022
O      9.009706    30.947819    21.654047
O      7.865477    45.046431    47.930136
O      2.547232    26.690829    49.964123
O     24.615419    43.282844     9.311134
O     52.695009    47.231751    15.759407
O     44.911797    47.983642    31.133625
O     42.695189    25.596757     0.137163
O     31.828137     7.240896    25.372914
O     31.166021    19.021828    55.895801
O     54.278640     6.206252     2.685489
O      7.612617    33.270979    50.987378
O     17.020237    30.605128    48.469299
O     42.551487     7.834413    46.475616
O     54.137889    25.923197    10.729740
O     18.922504     9.694759    22.796136
O     42.317943     8.174611    42.759746
O     37.422424    26.040539    19.274483
O      8.369904     8.645761    42.757371
O     52.232451    48.801478    19.910849
O     26.782285     1.415587    23.555260
O     52.806868     3.793314    37.714091
O     16.406010    41.303205    39.216757
O      2.031984    29.201237    30.805737
O      6.820822    22.290944    48.565378
O     35.917779    12.833120    40.882124
O     12.288553    29.753812    10.598274
O     19.085778    41.512451    15.162809
O      3.789812    55.687805    51.052052
O     21.775742    41.654699     2.612881
O     48.523522    50.343492     1.496598
O     14.247887    29.913638    37.910685
O     46.284114    16.930769    21.478205
O     39.489802    42.395231    24.700964
O     44.552880    43.272067     5.891867
O     53.143460     9.343130     5.376478
O     34.394371    47.013207    16.302527
O     54.495332    43.713804    11.037022
O     53.351288    16.494540    50.516012
O     35.525974    21.140185     4.537535
O     40.251503    24.311768    36.673037
O      7.928362     4.981776    21.163465
O     30.448736     9.615736     6.573760
O     39.737226     5.505799     8.227440
O     43.737414     5.097808    36.376673
O     17.221372    16.857850    53.293648
O     12.228058    11.992973    21.076162
O     52.636267    51.972698    50.424067
O     10.988695    30.260876    14.650403
O     10.398150     9.876994    49.779967
O     26.185821    13.209612     2.478701
O     47.560994    38.535579     5.266577
O     55.581520    22.589046    19.154497
O      0.692030    43.203601    27.450303
O     47.384947    42.517062    26.857249
O     55.356384    14.294405     0.206613
O     47.816777    39.435211    39.114177
O     43.097290    22.005115    16.649833
O     48.166894     9.444783    50.528972
O     26.295048    56.149395    12.761627
O     31.825558    53.509121     9.693740
O     27.859844    12.664711     4.404916
O     36.382906    12.254149     2.637165
O     35.737656    20.279411    48.739660
O     22.083985    29.761111    29.677165
O     48.746770    43.817098    22.059838
O     40.493948    23.560259    12.653384
O     52.695676     0.249899    52.172889
O     40.885132     3.346356    42.582932
O     37.140583     0.281971    52.810489
O     55.721299     7.696071    26.301340
O     49.907743     6.337844    45.433399
O     23.655659    13.390276    44.476840
O     28.532775    11.684609    10.340822
O     47.778084    39.823625    11.567368
O     13.352279    28.793555    32.937322
O      4.422704    37.952755    14.844195
O     26.631319    38.484213    33.616042
O     34.978710    25.565655    23.374071
O      2.859596     2.373171    31.365093
O     22.742182    50.014535    55.077916
O     54.433480    53.439433    12.349530
O     54.406231    48.429021    53.809834
O     17.773350    13.977080     7.411809
O     29.321592     0.876036    51.890102
O     32.367239    44.205154    20.866392
O      0.659296    13.164253    36.813440
O     55.803712    53.407712    30.781812
O     49.761479    29.821440    38.382776
O     21.264324    26.277654    55.019960
O      6.659081    30.265790    31.344064
O     25.431678     4.326200    25.691438
O     15.051494    25.692758    51.694798
O     51.699915    41.167657    38.175972
O      9.994943    42.896264    33.763326
O      7.215836    31.848178    37.047111
O     32.124191     2.528021    14.824118
O      6.130339     7.969508    34.130319
O     22.510787    44.729873    20.682277
O     28.993420    48.457882    32.338633
O     33.445921    33.180104    15.379158
O     12.165751    53.534128    48.636467
O     40.606762     3.510167    45.107234
O     36.610276    17.784438    33.483180
O      8.379658    16.652888    24.121114
O     56.532270    41.008318    19.304420
O      7.095536    39.918219    33.012525
O     51.788789    44.520458    51.766992
O     54.979009    51.494631    36.554519
O     36.230599    49.498944    23.907189
O     21.604591    18.969297     2.104211
O      1.191161    19.544561    20.479862
O      5.306124    29.017321     1.518291
O     16.858747    52.724220    42.160297
O     42.648279    39.843935    11.482712
O     35.828785    18.065667     6.034505
O     55.716041    19.462138    55.056522
O     48.360007    36.351150     6.494356
O     41.384791     8.592568    12.950967
O     21.811195    14.594453    16.482932
O     22.417046    41.090836    49.808117
O     31.877087    32.964875    26.570127
O     54.502077    50.023386    21.042817
O     23.757898    32.347265     7.950182
O     26.802193     4.710676     4.244640
O     54.886691    29.555621    54.816289
O     26.878965    41.771632    23.128322
O      0.750495    52.756167    18.225584
O     41.864598     1.651424    12.793514
O     21.870955     0.986940    25.079004
O      2.239680    20.293296    40.858506
O      3.328372    49.482267    15.432530
O     54.317096    43.708400    56.242415
O     26.482417    35.865758    33.412205
O     51.327871    15.308815    17.262266
O     18.384503    22.891460    53.630936
O     21.507570    54.325621     0.777981
O     51.924002    21.876606    32.710955
O      5.494121     0.369360    11.688983
O     28.887432    17.276549    37.477820
O     36.252800    17.543098    31.067151
O     55.667397    39.405442    13.870511
O     48.806284    16.394610    51.725112
O     24.641597    27.044205    40.068027
O     32.886514    52.143264    17.876690
O     20.724103     2.792350    18.741053
O     44.313788    30.575564     6.230982
O     15.897640    13.786862    22.994073
O     23.793135    22.202029     4.422641
O     19.676210    40.432059    19.614293
O     22.291232    32.602313    21.460182
O     49.634930    45.970052     0.783472
O     54.067200    24.871569    50.448892
O     32.805119    32.136447     4.855734
O     26.763854    35.822847     4.351213
O     41.140004    52.368506    19.264858
O     41.686614     7.547913    15.899596
O     43.467181    52.240615    29.383404
O     30.800947     7.981266    13.074297
O     11.822348    46.280658     9.235208
O     27.879819     1.720776    48.826932
O     48.386402    11.096658    44.450972
O     10.255967    54.256992     3.260718
O     10.147323     6.971262     6.011197
O     53.720901    31.592194    39.598740
O      2.323469     0.555655    16.799739
O      3.197225    26.549267    20.465348
O     34.530690    30.729782    19.253368
O     43.447147    47.967688    34.997078
O     14.431675    54.980009    48.846410
O     10.346065    29.348658    19.446501
O      2.711551    34.492417    23.029652
O     30.124616    26.150510    48.717380
O     16.370465    17.685011    24.578603
O      0.419951    43.375876    41.320623
O     14.257412    54.705444    36.565013
O     41.074663     4.262615    47.507496
O     28.656612     5.250927    42.166756
O     31.968673    31.406233    19.335202
O     40.505636    46.043317    21.429148
O      7.594094    19.826525    49.039763
O     25.899040    16.476678    21.282612
O     45.890164    43.285424    56.324041
O     35.685413    44.457204    47.357718
O     22.630611    31.519491    16.634873
O     49.840512    25.715284    26.138077
O     18.133243    32.207832    23.333432
O     51.074941    50.714933     0.957391
O      4.647069    16.248899    47.274834
O     39.671497    31.291753    34.301873
O     35.553004    52.676747    50.759611
O     50.140651    26.876563     5.007578
O     38.692447    27.531537    56.111898
O     13.382872     9.278209    48.062720
O     33.696606    32.537675    20.978779
O      3.591982     4.631466    18.841818
O      7.954354    29.422822    23.560121
O      0.353382    40.189732    11.600842
O     46.838860    14.832891    26.659791
O     50.948882    21.313375    23.962698
O     28.542255    34.596101    32.596700
O      2.635551    51.920468    28.802975
O     11.027393    53.849850    32.620049
O     15.548910    12.523282    52.120526
O     30.324193    55.951762    23.672004
O     34.394652    38.511945    28.101764
O     24.530389     0.215449    44.191460
O     19.430807    34.768729    40.067912
O     23.563027    36.040685    18.994644
O     19.700210     0.136039    43.585835
O     50.239847    48.995457     7.980953
O      3.822789    54.682427    36.075695
O     50.197316    34.963883    15.174018
O     43.472940    11.330035    50.292417
O     14.514383     4.842225    33.049322
O     35.218125    51.328497    30.429993
O     23.893330    11.021295    43.421465
O     40.342141    54.378065    34.022262
O     40.071944    42.192953    14.770506
O     45.852556    33.654942    24.756956
O      4.597217    30.440830    53.896790
O     23.764822     6.773513    46.099546
O     40.934631    47.709987     4.373837
O     33.821278    25.368373    34.773526
O     27.205690    18.508956    53.185637
O     50.223610    45.507580    53.614248
O     48.912875    51.156424    32.559477
O     34.487529    52.206275    13.261570
O     30.282365    18.111908     6.933910
O     21.226872    54.572009    47.727310
O     16.033019    48.302759     1.322722
O     11.021939     6.402749     3.644456
O     45.480912    30.774938    39.291142
O      0.677389    40.926642    16.669364
O     55.556689    37.729965    27.354152
O     32.211726    32.121892    56.490807
O     20.651506    38.848636     9.072599
O      0.022179    50.549590    25.819655
O     24.677658    40.756432    27.205096
O     29.808058     4.150344     3.192426
O      0.331547     3.893928    44.637106
O     11.832222     2.540512    53.524594
O      2.288847    15.044735    16.980888
O     16.187257    32.241013    55.725315
O     27.816049    35.083917    53.842785
O     20.023351     2.086432    22.112034
O     55.387483    50.867921    31.238967
O     12.695588     2.719790    35.657607
O     55.990736    41.282928    28.872198
O      4.325565    42.342296    39.299979
O     21.209650    21.327802    28.435590
O     26.207633     7.796737    41.925562
O     25.666995    10.650579     2.077871
O     24.458918    40.658438     9.804110
O     12.892290    55.404549    46.776494
O     50.543539    40.670466    34.804473
O      4.962203    31.098213    18.542996
O     11.303671    47.091550    31.089635
O     27.934199    21.965808     4.546863
O      5.012510     2.906637    29.812491
O     30.227098    22.330224    45.804439
O     40.227571    13.708603    53.655320
O     30.402200    38.346946    17.347253
O      3.118776     2.840156    37.518961
O     34.260010    39.781122     7.058411
O     40.910059    14.222909     4.373966
O     29.263638     7.180946    50.578802
O     51.841631    51.648248    46.035063
O     19.099612    10.127915    36.441471
O     52.519777    40.850769    56.591091
O     14.776275    30.964538    32.542181
O     16.302234    20.437811     4.875810
O     52.108611    34.111525    32.061082
O     33.177079    50.474210     0.417378
O     46.176019     5.736630    21.827685
O     25.552004    36.430529    39.949329
O      5.064999    44.761159    24.119220
O      3.171918    36.945726    48.135672
O     10.701657    17.533113     4.420619
O     13.211278     9.907133    45.573862
O     45.629353    44.088352    39.620352
O     18.682447     2.844775    52.408908
O     55.150191    50.242406     5.795078
O     47.385816    16.398622    36.133567
O     18.093190    11.487778    28.785504
O     55.242071    16.783305    45.663375
O     36.886641    10.872248    35.254606
O     27.267478    16.101577     1.024125
O     39.728097    35.171634    31.555868
O     28.507312    40.986225    16.859305
O     55.758804    54.817116    10.559198
O     51.688470    40.604579    25.458956
O      1.804724    35.511443    13.241483
O     32.509345    28.592642    45.613279
O     15.049869    43.065609    28.839149
O     35.474975     9.043330     8.407261
O     53.273630    44.522419    30.159582
O     48.773292     7.613297    15.232896
O     37.713829    10.337444    14.404605
O      8.415517    36.065867    42.847419
O     38.844631    52.347337    29.739122
O     30.703466     6.910420    55.262964
O     43.464226    42.989765    45.242815
O     11.853611    50.727485    23.850184
O     23.653829    43.348444    49.256240
O     13.020616    33.043335    18.793933
O      7.613138    36.980237    39.646275
O     52.037109    18.675280    42.620956
O     32.117066    16.510534     3.047433
O     24.523500    56.491528    52.448087
O     32.980426    55.200792    37.201312
O     39.210205    51.711008    27.312943
O     37.577757     7.008155    43.861599
O     55.908031    21.083124     2.919275
O     20.747729    50.944439     7.740847
O     42.318049     3.372241     8.328589
O     27.396904    11.677358    21.320816
O     22.212602    40.131352    27.318135
O      3.469371     8.429130     3.414148
O     42.773637    51.328856     0.823835
O      1.637494    35.989569    46.276171
O     48.698341     2.574722    51.840254
O      5.756248     8.146415    42.932710
O     49.143540    55.150858     2.175173
O      5.979149    24.829445    38.698134
O     51.314328    19.427062    49.509661
O      7.671864    33.584779    55.486311
O     17.520011    42.537674    25.938282
O     46.451036    23.677766    43.852578
O     25.226477    48.798245    24.421284
O     40.415601    48.840330    48.211559
O     47.070124    11.014565    19.203092
O     25.175222    42.749388    43.507896
O     28.263634    52.794537     9.487020
O     37.043633    12.741616    51.616291
O     12.420181    41.975209    40.130364
O     52.523291     0.291189    49.521320
O     34.735111    41.119778    48.965899
O     32.886168    40.553803    38.743167
O     33.270858    51.520789    54.608709
O     14.522071    14.236374    16.046904
O     37.540540    36.139773    50.776068
O     31.583018    42.553757    23.715599
O     16.299139     5.812878    24.975291
O     53.120530    20.533891    22.583717
O     55.720559    37.662234    37.152071
O     38.061347    37.341558    35.672419
O     33.147263    54.102532    54.786490
O     27.773193    45.617832     8.295529
O     56.335097    26.811746    39.729038
O     46.361930    30.141847    53.560723
O     34.286821    19.474483    21.415971
O     36.315253     3.962777    30.302252
O     37.926442     6.081629    56.586660
O     43.023744    18.695990    53.630995
O     42.215460    46.795509    25.749399
O     34.191069    23.841958    50.332763
O     20.987362    12.883443    10.712322
O     22.194819    43.855512     1.090903
O     11.921030    45.722412    11.817014
O      1.465336     0.300966    49.023074
O      4.313835     6.832039    11.280894
O      6.752605    21.479191    30.492313
O     45.765694    35.203770    47.719298
O     42.057147    49.955389    18.756856
O      1.070045    44.396389    22.308052
O     16.969136     4.170771    33.865581
O     13.128645    11.131277    39.198410
O      1.236715    47.910328    34.460406
O     37.205440    18.613141    10.016677
O      5.730615    41.787789    21.825376
O     13.398419    45.260700    36.574467
O     11.483832    42.566618    52.678032
O     52.935535    12.660130    26.320051
O     37.749107     1.433031    34.606533
O     52.401507    40.055276    48.514595
O     53.059470    23.710075     2.980181
O     52.144522    15.524271    56.084623
O     42.347490     7.770540    54.833615
O     39.245099     2.486162    47.352439
O     20.186807    49.314920    20.619922
O      6.601246    44.861525    20.344301
O     36.214951    19.174133    55.381599
O     19.466071    39.604036     1.424119
O     20.246583    55.505669    52.857753
O     31.524155    38.716873    11.049725
O      3.680636    42.770563    44.356286
O     39.216988     1.693280    13.543958
O     30.905182    24.752945    16.097242
O     47.429839    35.355983    20.289627
O     48.793695    22.684867    42.974140
O     40.421848    51.422948    24.900771
O     44.900487    45.769058    41.668270
O     55.822995    42.877198    50.373660
O     16.229307     2.127853     8.408538
O     20.301932     9.716447    10.113873
O     37.348967    54.684373    54.183268
O     50.870925     7.026323    21.234093
O     17.878257    47.548053    41.764421
O     52.575534    54.276264    51.708853
O     16.091175    39.232951    28.932189
O     23.037894    41.802570     7.718909
O     13.586608    39.280028    56.253771
O     14.875950     6.956299    50.088089
O     43.583143    33.865517    29.249393
O     53.732178    54.158100     3.757517
O      3.611226    53.225881    50.275515
O     23.576752    41.772210    21.292242
O     14.745080     7.280363    29.806870
O     33.246823    43.235992    38.890977
O     37.457814    13.432282    10.871218
O     13.312703    48.865273    48.542342
O     21.792668    21.792562    41.085152
O      6.970137    38.186175    14.085926
O     41.309315    53.126450    23.148790
O     32.994915    20.626140    16.562896
O     46.830126    45.904725     4.917429
O     20.112028    27.773307    22.649860
O     30.368546    26.847299    27.650772
O     55.890831    38.329561     1.441610
O     14.475228     1.802380    20.561486
O     30.311141    10.713216    37.964424
O     43.250690    23.421226    14.383860
O     26.613491    29.555790    28.914419
O     11.203013    44.534155    19.589511
O     29.722245     8.975352     4.176205
O     48.325361    51.255984    44.737755
O     14.499374    15.197519     6.588279
O     43.302048    21.431977    22.697427
O     27.628366     5.419047    47.862960
O     43.567580    45.507296    11.685576
O     20.996997    44.297576    32.267813
O     24.213295    13.553034     6.173322
O     34.649148    10.562724    49.534191
O     23.683640    35.303292    45.377986
O     34.574153    12.662904    43.208087
O     36.396577    31.217428    46.251483
O     11.912141    47.367748     6.835052
O     37.380809    34.812011    54.488283
O     35.272907     9.634063    36.945059
O     12.220988    38.956484    27.936928
O     15.177508    21.322746    39.354334
O     15.467630    37.917538    26.642517
O      9.636212     0.022239    43.492927
O      0.510192    40.320648     8.837855
O     22.325927    33.653934    26.478338
O     26.194866     3.681786    49.172352
O     11.707926    15.761632     2.824979
O     40.702936    43.117171    56.051108
O     34.936879    48.324523    38.935996
O     20.785235    28.127162    15.871541
O     54.654747    56.114536    15.843538
O     46.351704    22.411491     0.528795
O     42.375609    16.950146    50.139715
O     25.673348     4.403058    14.378803
O     29.160868    12.061434    25.878842
O     18.510248    47.996018    25.571908
O     16.864659     1.475518     4.326506
O     35.317391    49.035135    21.616134
O     18.898967    38.211743    21.044972
O     11.212330    31.477681    30.520112
O     54.011193    10.987554    53.031739
O     20.783548    37.051510    48.040641
O     39.929987    29.841578    55.895158
O     54.464113     4.349021    43.825854
O      5.962671     4.892828    33.911623
O     10.696598    19.814243    50.478873
O     13.102845    35.110896    44.192637
O     17.133276    36.993569    51.996178
O     23.531343     9.610302    29.550325
O     27.387305    16.549894    45.525410
O     39.482076    20.338647    28.823414
O     13.489472    24.293259    23.557065
O     34.717798    53.216944    20.809498
O     13.080170    49.299030    39.383610
O     23.114764    27.852384     2.647829
O      4.199473    25.326500    28.887734
O     38.935855    43.169778    17.871259
O     39.182010    27.318068     6.808150
O     35.515815    39.274352    44.766311
O     27.012733    33.134863    16.234643
O      5.894691    13.292252    40.928298
O     41.818980    43.849643     9.252606
O     13.255044    54.277556    44.443035
O      2.987514    37.843430    53.646948
O     26.381104    53.110640    31.327546
O     49.484486    40.496605    52.450820
O     30.883467    44.999291    45.114012
O      7.506455    26.716136    47.997251
O      0.575498     2.943933     5.780183
O     44.960753    15.680556    19.619839
O     30.320294    29.964620     2.850873
O     26.222249    53.452952    51.031912
O     26.401128    16.061574    28.192159
O     17.374218    10.432112    26.565589
O     52.011428    47.102204    24.137871
O     53.686524    50.655025    52.498154
O      4.424136    19.386518    52.992978
O     39.998588    23.150965    18.204173
O     26.821155    52.591618    34.894785
O     24.142629    14.919873    36.971901
O     50.107703    41.008946    40.153975
O     11.606191    23.003262    34.249549
O     33.556678    44.237488    55.974089
O     20.027586    23.998600    15.340063
O     49.615004    33.664438    30.013063
O     47.858066    51.569146    20.313518
O      0.382107    54.988376    42.658459
O      1.772618    42.660842     2.414961
O     53.401397    13.784093    23.991254
O     51.553566    38.560090    37.792745
O     18.990324    34.575815    56.485874
O     24.725091    51.214833    40.386123
O     15.992049    45.922056    18.599719
O     27.687868    29.591374    18.214931
O     14.708400     0.815306    14.547360
O     14.112698     3.730690    42.436614
O     54.391022    24.880112    18.906939
O     54.635340    18.221015    30.902515
O     16.587244    24.911687    10.413237
O      6.427920    36.023085    15.289338
O     43.862042    34.596273    51.943950
O     41.920831    25.700998    35.254429
O     10.739886    38.942527    25.818507
O     21.611070    50.595079    25.048600
O     43.373257    41.189334    18.242657
O     29.953170    18.776111    23.301065
O     25.305796    19.995342    25.066600
O      5.212249    52.758860    54.575936
O     33.906230    50.907250    28.161672
O     29.833805     4.338125    11.236343
O     48.052453    48.045963     0.248100
O     16.185518    32.223942    41.152015
O     38.159924    33.317575    34.772735
O     30.659155    39.085589    47.814919
O      8.513813     5.770756     4.234323
O      0.269932    47.133411    37.889492
O      1.393944    10.122105    43.705804
O     24.909437    26.119560     2.158294
O     17.528370    27.539765    23.170410
O     42.706026    31.688958     4.377302
O     22.744028    27.078573    52.810373
O      5.467243     0.926075    33.616695
O     29.832545    46.852042    22.401260
O     38.289805    44.123135    31.466892
O      4.537352    51.697302    33.605614
O     37.063792     3.456283    13.720599
O     43.902452    23.191875    18.917661
O     41.201871    11.291909    32.504303
O     11.305977    10.427470    17.068170
O     46.313855    25.444042    49.264576
O     16.731845    54.229519    44.460007
O     51.172062    51.606694    42.126964
O     50.605010    38.382021    31.929757
O     12.585831    42.424081    20.766653
O     55.428072    19.772885    10.398516
O     42.952467    17.213856    34.502261
O     36.041801    42.425053    41.064238
O     12.587299    35.751336    16.382378
O     33.398571    46.758513    26.955565
O     51.173486    53.159582    18.177540
O     30.231461    54.375542    48.496888
O     18.716639    36.525427    12.059307
O     42.953749    40.322224    35.847735
O     40.729455    25.790644    18.139262
O     20.452539    41.269041    10.473929
O     32.282266    13.301311    37.837190
O      4.171692    55.439784    24.002152
O     14.431089    14.837214    35.221619
O     15.981958    56.421788    40.095524
O      8.000928    22.675197    27.853047
O      3.045339    35.401762    54.791700
O      4.248979    31.009671    11.049850
O      8.318257    20.376407    37.309099
O     42.608829    19.820143    26.985500
O      8.145192    45.355729    35.695550
O     36.884366    13.224131    21.577070
O     55.877571    54.807929    22.539237
O      6.898526    38.373178     0.571900
O     54.963528    32.590447    45.054675
O     41.096863     3.521256    25.920641
O     34.588982    49.322813    55.269097
O     37.370733    10.121481    51.326213
O     35.777740    27.799893    47.604638
O     31.037500    55.089418    46.091581
O     47.392805    14.339111     0.207425
O      8.983646    36.896549    26.127561
O     25.291271     5.334370    41.786191
O      2.946761    55.041134    55.309520
O     24.723896    45.538714     1.979198
O     11.941654    18.214901    36.257798
O      0.433762    46.695487    23.524137
O     16.976345    44.738205    28.512493
O     39.524512     7.987930    11.049740
O     37.880274    23.473845    34.753401
O      9.221106    39.033157     9.987298
O     43.367143    30.077806    16.960804
O      5.010862    53.050612    28.776202
O     48.610858    24.840167    20.994604
O     40.565600    30.822972    31.276671
O      4.508821    20.284807    30.407040
O     55.521042    48.137399    39.879707
O     13.249727     6.726830    55.760515
O     50.247609    30.098514    41.068773
O     35.905566    42.593254    11.628436
O     10.373017    15.824692     6.356112
O     14.091458    19.116790    14.436060
O      8.032821    20.376457    39.945690
O     51.655086    38.317795    34.302464
O      0.980170    37.663011    35.233230
O      2.988406    23.028377    45.496162
O      6.438785     4.854867     5.583099
O     22.687877     8.261490    33.038122
O     29.567649    25.780229     1.090211
O     46.348384    18.184599     8.319459
O     34.698408    43.676476    19.889452
O     26.720112    18.219563    26.613544
O     29.094343    39.091790    53.307416
O     55.616083    46.492115    34.373761
O      2.684825    10.203355    20.617129
O     29.969627    23.116319     5.654043
O     40.709094    25.582106    25.251310
O     39.879874    17.877749    17.025326
O      0.050024    51.530758    29.082929
O      2.333271     5.167232    41.370377
O      3.400468    27.880622     8.632383
O     14.902231     1.006096    30.524627
O     26.961427     5.489663    37.498933
O     49.657062    54.774726    56.105434
O     10.089187    56.031533     9.577291
O     35.125510     2.441812    12.197883
O     18.853809    34.641513    24.242991
O     31.304286    18.771457    25.593611
O     53.949368    44.714523    35.238744
O      4.743243    50.918658    51.959525
O      1.243876    27.035486    46.201134
O     20.306457    11.932292    23.527799
O     11.948406    43.426987    35.425809
O     16.786816    43.915683    35.467936
O     12.370036    37.748013     6.699967
O     31.565854     7.649578    20.273895
O     22.887673    22.141394    43.541191
O     46.445899    31.495118    23.239897
O     23.281388    42.155591    40.735412
O     16.201831    45.026996    46.261796
O     21.917837    28.204920    41.121939
O     42.945862    47.324941    42.671521
O     28.444391    19.614289     5.623822
O     44.960782    19.136807    27.896079
O     39.245990    11.482476    28.323636
O     52.855235    34.481853    49.177246
O     36.311423    30.591758    54.375362
O     53.943307     1.488541    28.168377
O     54.567584    21.568249     5.761613
O     10.419602    42.037353     8.920413
O     50.074467    38.713032    11.499184
O     55.813612    21.222851    44.816572
O     51.934796    46.779447    50.456376
O     15.358252    48.161041    33.102290
O     41.370139    18.040629    46.432589
O     52.659219    41.104070    40.572481
O     45.713729    31.693962    55.621262
O     41.817021    50.242621    12.492363
O     20.134985    35.238050    44.702959
O     11.803636    18.060625    55.442269
O     21.581861    16.107928     6.712087
O     29.955592    22.924168    28.037227
O     51.314608    15.789208    14.759521
O     33.358201    50.362249     2.957844
O     42.620703    15.113192    28.830859
O     35.044255    55.877386    28.766131
O     33.590717    16.057509     9.436385
O     29.979857     1.055931    15.706434
O     38.301723     0.289807    27.147102
O     46.668320    33.674264     0.638237
O     21.064208    52.822671     2.872200
O     23.076849    24.184283    48.154204
O     56.074828    41.631163    46.456739
O     18.510678     7.145896    25.508023
O     23.323033    22.573260     9.928995
O     21.649809    50.114178    18.543116
O     50.930883    42.168610     8.914919
O     50.985462    22.690822     1.996433
O     46.025665    56.017575     4.328957
O     22.416252     4.462003    17.768831
O     18.460290    42.825916    11.196180
O      8.092712    23.507624    15.055491
O     19.325033    27.357802    33.651497
O     20.585884    40.192546    43.700085
O     55.059014    22.410772     0.817600
O     25.923599    29.950055    23.015702
O     43.118238    36.289427    27.865321
O     10.531261    35.864044    21.706077
O     34.193498     3.250634    26.345989
O      8.270072    42.063053    25.250699
O     28.273595    43.592401     9.901985
O     17.892287    19.980961    47.503005
O     22.089940    36.742866    11.916513
O     46.163355    36.214967    35.532958
O     18.829573    18.350640    18.190689
O     48.921654    25.983731    39.842934
O     32.750300    34.974036    55.090114
O     16.527012    22.554935    46.920357
O     42.183398    35.858166    39.923038
O      1.633447    30.826232    32.834449
O     16.965618    30.078506     5.660151
O     29.292750    27.070482    51.028970
O     47.842530    43.189236    14.453061
O      3.787998    54.399565    42.527517
O     25.945156     0.558642    18.972961
O     17.567755    38.597746    30.922907
O     42.765044    25.013924     2.677859
O     33.735269    35.785698    14.631306
O     13.431026    18.794960    38.333368
O     31.834423     0.450879     4.761055
O     55.082776    34.050985    35.555902
O     25.780033     3.401718     8.999443
O     21.336549    24.216443    41.091856
O     36.014810    15.978360    36.944205
O     42.770026    23.730798    53.347152
O     35.572362    38.967418    11.354306
O     11.918899    29.950738    42.384023
O     39.895058    36.490492    33.845419
O     35.201469     1.413642    47.573728
O     52.626588     2.466584    43.370851
O     55.041355     8.634223    15.310389
O      6.571321    56.377577    47.764193
O     11.298154    38.636669    33.263500
O     14.433390    37.869720     1.839251
O     45.796964    40.565179    26.149313
O     44.540534     8.158246    24.272626
O     42.017671    42.241877    24.441395
O      3.621244    55.049166    21.533454
O     53.606644    46.176620    55.289724
O     10.275152    33.762322    32.022424
O     39.566379    17.357546     9.694757
O      9.204011    49.126960    45.611742
O     52.265823     0.465110    41.509349
O      7.705622    10.655438    53.126170
O     31.153788     9.444507    54.212934
O     38.753717    34.461362    52.322390
O     24.963734    47.723000     0.367184
O     51.929728    49.119433    29.131479
O      4.186945    31.515266     4.931525
O     11.772027    24.627257    45.419751
O     42.040947    53.146169    27.284678
O     46.095329    50.402994    13.185469
O      5.804906    51.808677    26.603865
O     23.486816    39.678146    36.731674
O     13.739621    33.428020    16.235722
O     45.711570    15.870501    49.732407
O     24.773884    48.991004    43.810665
O     34.642089     4.858962    23.371084
O      4.013961    34.909999    11.976906
O     15.300988    43.960474     2.874091
O     40.005755    53.525241    40.419864
O     16.598906    16.446012    44.685845
O      2.877342    36.399642    27.458602
O     41.667605     7.411673    50.473905
O      8.687199    39.810793    40.708376
O     46.047058    37.344382    46.264225
O     28.237268    20.721141    22.405827
O     55.441849    45.024993    37.334567
O     56.366996    38.028433     4.080084
O     32.738770    37.253717     2.972208
O     44.230251    27.929746    50.109828
O      3.158600    25.603252    36.077780
O      3.843957     7.163434    31.994843
O     52.551342     4.150316    10.430600
O     38.620865    40.137618    23.624234
O     23.803032     9.392619    46.672402
O     12.098862     4.160863    44.038427
O     50.441354    26.440944    14.014683
O     26.830328     1.975973    32.186423
O      9.899047    51.203960     5.697425
O     56.445000     4.332194    13.789284
O     11.099493    38.652121    11.704125
O     23.427368     7.933123    27.606372
O     11.776735    55.911137    24.194156
O     14.247262    35.511132    50.966561
O      7.234151     0.290863    38.691672
O     10.088532    52.633274    15.911647
O     34.531569    22.540390    38.733305
O     24.796641    54.644914    54.340710
O     46.386367    55.464257    41.722493
O      5.845591    44.039799    43.740548
O      3.541621    32.044964    27.920630
O     10.866816    48.708572    11.201425
O     52.885864    13.950543    20.224188
O     22.817983    51.995075    19.927768
O     22.215773    20.223126    51.388107
O     12.255461    16.811366    27.391408
O     18.915399    18.180273    54.770673
O     43.761734     6.551931    20.863164
O     10.504787    41.145305    16.147830
O     56.116107    37.081631    32.180701
O     47.520153    30.814812     3.537902
O     29.289904    24.477873    23.250519
O     18.488860    48.792905     0.840425
O     38.737331    16.343779    56.469797
O     13.147602     2.558001    39.322512
O     30.413466    26.052830    42.326385
O     35.174782    40.149352    16.396034
O     37.793476    17.891140    13.103331
O      1.836114    47.137792    50.568367
O     48.112021     1.757032    24.739264
O      3.208710     2.109850    26.826654
O      2.543867     7.880831    50.413946
O     50.007699    36.968406    55.048692
O      1.542715    56.135362    35.504756
O     30.918567    55.352985    55.465176
O     15.621981    12.578513    28.431460
O     51.924927    46.753697     1.825258
O     29.142588    43.026069    38.212495
O     14.310017    25.089003     5.940127
O     19.417062    23.397484    31.146780
O     36.970929    32.122455    48.661255
O     32.262953    26.143934    18.955569
O     28.121312    55.306718    50.810521
O     45.718281    54.426580    29.074563
O      0.931613    48.673637    14.762163
O     14.514247    54.052390    10.928095
O     12.000110    51.682878    50.656489
O     39.485708    16.883527    30.844508
O     40.615986    46.269264    16.182501
O     55.019929    28.635243    25.241342
O     39.870523    11.939136     7.024308
O      2.617621    37.177714    22.783805
O      3.160535    28.091590    18.432073
O     33.155766    16.258601    18.861286
O     13.413022    10.740266    11.980248
O      1.797938    45.607146    41.070776
O     19.489791     2.214724    12.363210
O     23.473015    29.471852    12.001648
O     20.331125    27.867715    45.884819
O     53.705755    44.590940    49.937692
O     15.201775    34.668175    40.166279
O     34.619940     8.770253    39.314566
O     28.159686    17.972918    28.784002
O     33.743119    23.594018    45.215317
O     12.879422    29.421384    50.482073
O      3.282699    48.777485    38.157968
O     18.827189    20.147244    28.204768
O     48.319584    44.053859    12.019508
O     20.192484    50.926586    27.186987
O     30.655818     7.871650    34.690720
O     10.350276    34.337728    41.836426
O     46.798773    23.370890    50.976729
O     15.321967    42.715373    41.106126
O     10.961740    36.371465    43.232659
O     24.239983    36.712609    50.259995
O     37.028186    22.410992    11.486119
O     32.952833    47.782110    50.165192
O      1.541366    51.579555     1.476189
O     47.331844    26.261865    46.913481
O     13.307810    48.548471    11.912099
O     26.320090    27.644035    24.243678
O     16.809463    26.926542    34.348037
O     31.916352     7.978151     5.179595
O     37.483753    34.100642    19.619147
O     26.274387    30.739735    39.828834
O     49.140316    39.613979    13.809222
O     34.785713     4.113715     7.187848
O     50.789402    16.407149    42.738655
O      7.495979    15.291961    41.659464
O     23.985539    14.896084    28.595058
O      0.012067    28.431020    53.273323
O     55.608776    55.900081    49.238087
O     10.413137    54.426495    40.154732
O      8.311052    21.017917    46.736823
O     26.342610    18.301377    12.583235
O      7.018777    23.725841    12.738108
O      3.188464    18.794937    48.180618
O      9.415110     5.197461    16.671522
O     34.573192     1.403191    55.197145
O      4.442239    36.006721    24.275935
O     47.029557    15.152862    54.413420
O     37.655570    38.833497    12.772809
O      7.817352    17.945743    41.045865
O     53.395634    35.304418    30.153106
O     39.151445     8.562647     2.310324
O     52.067757    38.393667     7.112355
O      7.915522    32.416252     6.327572
O     39.013068    10.735395    33.801804
O      7.949417    29.136539     7.564239
O     25.606440     6.499461    27.048393
O     37.675332    28.899040    43.149368
O     39.149027    36.064205    19.880683
O     55.564917    38.879104    30.225871
O     42.263144    37.841645    15.550067
O     24.580761    14.606768    10.589137
O     46.305684    31.685210    28.421205
O     48.189965    47.496750    35.866048
O     14.212379    52.884708    38.442112
O      9.124033    55.420175    45.624167
O     17.853316    56.147541    53.787879
O     20.406572    38.470214    27.907928
O     46.364394     7.027684    14.440379
O     44.932025    54.291111     5.968155
O     17.399165    40.963462    21.558905
O     13.564938    28.875882     4.064149
O     41.508807    54.950992    18.901619
O     31.767599    14.510280     1.320397
O     33.771357     4.483685    29.831599
O     45.360685    36.325804    13.062302
O     40.455143     8.994951    36.860611
O     52.710406    54.530588    37.341932
O     24.017633    25.475106    20.924846
O     18.653522    25.042163     5.133242
O      4.978295     7.917615    15.168620
O     19.327222    51.249513     0.249034
O     26.503020    29.629282    42.149430
O     54.448713    54.122897    20.504198
O     53.595855     8.141141    56.241411
O     48.876648    41.662961    29.595004
O     44.996106    55.539293     0.550937
O     45.106143    32.676008     4.771317
O     38.553354     2.670054    30.602322
O     45.842311     1.735365     5.599436
O     50.259010    29.233832     2.405392
O     46.721779    26.541791    15.889583
O     31.201354    46.514400    20.220672
O     53.306060    26.855529    39.385050
O     45.906401    47.486275    49.251414
O     56.410376    36.547936    48.017228
O     21.251483    39.431928    31.520120
O     33.098224    44.486723    46.618700
O     18.569323    28.156472    54.205813
O     19.915356    21.323228     8.963856
O     44.534161    21.693937    32.695791
O     55.812136    53.928100    47.583086
O      9.509655     7.569892    50.626225
O      8.134892    11.438557    37.011139
O     54.948307    54.028250    35.931770
O     50.972449    53.311767    25.792384
O     46.419654    34.639627    52.914123
O     44.568518    37.649307    48.468001
O     26.675625    23.618243    51.610248
O     43.617502    40.802499    52.530785
O     51.827534    11.214033    13.641063
O     29.796151     2.552851    19.823611
O     24.557249     0.306680    48.402083
O     11.762678    41.846416     6.754611
O     28.035022    54.777285    42.184558
O     29.914391     0.129550    21.025744
O     30.661027    32.578585    48.117521
O     22.760911     4.412943    46.359993
O      2.040187    13.098941    47.345505
O     27.610938    45.431045     5.088911
O     13.900017    33.235191     6.965503
O     26.055769     8.039550    21.780557
O     27.756180     2.886781    41.638474
O     25.799518    46.439305     6.699885
O     25.158488    42.856828    30.305727
O     33.660578     2.352351    45.543666
O     51.598355    11.904527    52.403197
O     30.814094     7.040916    15.509753
O     34.939566     6.154443    11.976182
O     43.864316    52.137841    44.789397
O     49.701427    15.374131     5.944735
O     49.980266    14.010960    51.836802
O     31.354936    47.758013     4.467978
O      8.790822    50.332260    27.783386
O     51.894028    24.627408    29.215421
O      3.377398    27.541646    47.715382
O     18.686977     5.645533    35.387875
O      7.906149    56.183071    13.000754
O     26.725266    41.162601     4.820620
O     16.193375    51.301224     4.335323
O     16.010434    55.263273    42.317905
O     46.837349     1.050078    22.432381
O     41.033473    15.414146    16.601372
O     40.922847    41.293939    28.000786
O     10.281530    52.264647    10.357347
O      8.899480    21.861290    32.023472
O     41.396654    39.889374    19.233613
O     25.256095    35.426781    11.576704
O     10.042609     2.511312    35.538619
O     15.117383    48.011880    16.082166
O     23.522603    31.817520    35.405397
O     55.467447    19.524100    27.289359
O     20.874772    27.738979    18.552518
O      1.969615    23.801370    47.743159
O      2.611510    36.495800    36.754699
O     32.553790    54.146558    19.484705
O     27.504403    29.309105    47.676767
O     46.922496    10.515761    55.586897
O     31.330908    33.211286     3.032255
O     45.492809     9.373922     0.965262
O     53.345145    16.489768    23.815554
O     16.939168     5.672079    40.662610
O     41.845288    24.348993    51.053128
O     48.807442    45.698980    14.070811
O      9.872106     0.625852    14.567973
O     52.252234    21.064390    35.130281
O     55.565781    39.409860    44.279848
O      6.197193    27.121794     6.803000
O     23.524229    37.572740    23.964597
O     37.341377    48.087870    12.426011
O      2.642278    51.329586    37.902005
O     45.657258    31.425245    17.470676
O      7.475277     3.201247     8.643373
O     22.247153    55.812926    31.029161
O     50.975138    53.922211    49.664639
O     45.575931    44.475127    45.764302
O     14.462444    20.594537    19.498081
O     28.340040    12.546168    42.332997
O     39.730194    33.672841    54.680694
O     43.743903    10.358522     3.731618
O     25.638627    32.050558     2.700989
O      8.607447    50.480739    41.425291
O     49.922918    36.438210    33.578896
O     24.378904    27.509403    37.365851
O     31.975727     7.414448    53.036087
O     24.293429    12.275880     3.910181
O     53.314589    38.607281    41.328716
O     14.921015    46.385509    28.193404
O     49.497866    43.148783     4.461421
O     17.698040     6.973549    12.475534
O     27.343373    14.274967    32.482807
O     53.075451    52.407643     0.407847
O     11.691663    36.826823    45.650303
O      1.576803    24.381985     6.403000
O     37.471298    18.280765    20.652311
O     47.594704    49.335950     8.385114
O     46.865071    17.269209    15.820151
O     19.015508    12.999960    47.638651
O     28.480828    31.748151    47.027271
O     18.713266    56.382350    21.534353
O     10.269606    48.395363     8.461606
O     41.642634    24.112792    16.375202
O      2.154987    37.726464     8.625285
O     22.896464    29.544011    32.088446
O     35.062207     0.087630    37.946522
O     35.915965    20.946236    22.755473
O      1.243184    13.991539    24.239871
O     36.508299    46.257676    44.566893
O     20.870812    45.785146    16.708020
O     26.875128    23.334704    45.169837
O     54.187083     3.692253     2.099942
O      6.855799    31.228313    46.814838
O     24.000188    29.901151    55.172828
O     32.595456    46.173677    52.733514
O     12.325066    50.834558    11.038340
O     44.378888    23.523770    21.522588
O     43.597547    25.886367     6.261995
O     14.168954    26.685992    34.413209
O     26.153340    13.166091    15.111588
O      4.064610    11.576181    26.522135
O     51.392469    22.247643    39.722175
O     25.312692    27.958786     4.099500
O     23.957963    17.588431    13.269882
O     55.595995     8.242545    17.989558
O     22.239197    25.709303    26.999093
O     30.732796    51.567754    21.190496
O      6.925050    24.971155    27.330465
O     48.256296    25.745444    55.490203
O      5.643353    53.354928    41.211941
O     54.165045    14.650736     5.016782
O     22.809987     5.071933    48.877820
O     43.402683    35.826547     6.575647
O     46.780632    12.596250    38.044322
O     50.788494    54.749591    29.008359
O     12.901074    28.761878    55.563969
O     39.484329    22.297239    32.828748
O     30.821563    14.905197    26.083675
O     15.861232    43.886668    38.803147
O     38.109755    50.122605     8.609211
O     33.790032    44.658281     1.984763
O     49.243240    56.427991     8.377798
O     12.541415    10.429171    36.744902
O      9.990241    28.013618    36.479368
O     41.959432    39.318190    30.799618
O     44.171678    35.669941    24.644090
O     35.063821    31.713651    50.383664
O     13.221382    38.973077     8.808708
O     42.136345    44.766415    49.109139
O      8.149493     7.180534    12.363471
O     47.139113    19.613026     3.674840
O     54.272195    11.286505     8.233775
O     37.332003    18.748607    40.599748
O     34.323406    21.548364    29.290392
O      1.108203    45.189474    46.142060
O     16.169935    52.939210    32.334600
O     25.335154    21.247167     8.919465
O     17.102751    31.180771     1.211129
O     17.699985    50.612511    11.968918
O     26.126078    31.975319    48.616565
O      5.240673    42.435183    54.776771
O     40.920062    42.789873    42.507558
O      0.573657    41.445885    13.991476
O     22.682546     9.474129     7.052904
O      0.956493    21.994205    13.430512
O     28.215040    43.848217     0.848012
O     45.419283    33.833955    16.504969
O      7.319646    17.581344    53.786596
O     33.067744     5.778774    55.994656
O     13.438417    30.113557    30.582578
O     30.176208    45.533080     5.122401
O     37.739926     2.002251    21.638448
O      2.724982    16.827411    52.090921
O     41.394250     9.889189    22.839342
O     39.792094    27.965207    48.293073
O     41.946990     5.776529    53.282403
O     53.471658    18.390809    28.616298
O     55.812406     9.011289     0.870249
O      1.396974    25.113921    40.995384
O     23.366351    43.590182    45.276452
O     20.892494    46.010342    48.146209
O      8.087272    54.408264    38.951653
O      8.373884     0.762673     7.986846
O     21.782560    30.599494    42.253567
O     22.513871    15.928281    40.592440
O     54.603464    10.255083    22.054262
O     50.693014    37.052832    19.693091
O     37.017577    27.282771    45.165505
O     13.464231    16.316846    37.661157
O     25.387512    12.844475    22.656962
O     11.208064    24.409952    22.114425
O      6.046031    50.731096    41.326425
O     33.001339    24.596351    14.343000
O     34.717176    27.330203    52.548262
O     12.301683     6.401826    30.289990
O      2.232457    38.056689    13.217306
O     54.418383    48.737659    30.120921
O     13.546831     0.243817     6.133115
O     15.977828    12.098551    42.723464
O      0.352562    33.388354     6.623831
O     36.232092    25.359082    46.757172
O     33.429928    51.180058    25.645825
O      2.780737    16.815123    18.855676
O     47.739525    54.023651    35.921148
O     12.629032     8.003368    40.643148
O     45.146885    18.206236    33.511406
O     50.709363    10.556633    34.811566
O     44.527602     9.501086    41.601029
O      4.646558    13.680119     2.820496
O     53.456634    44.872558    43.169697
O     47.935895    48.452206    47.818584
O     37.716743    18.616390    53.259934
O      7.569687    27.882608    15.891555
O     39.773724    43.464041    29.227509
O     29.497296    13.718950    48.257655
O     24.454875    13.664963    26.336857
O     27.479083    18.222242    22.504607
O      0.126337    43.238978    55.405556
O     46.859366    12.167363    14.803174
O     45.693538    53.130244    20.287007
O     53.483011     1.981408    34.343628
O     19.122324    17.168812    45.159477
O      1.854611    30.294709    47.656683
O      2.892545    15.938531     6.413836
O     13.900722    33.532041    47.162431
O     35.505020    14.321953     8.627210
O     16.768293    29.076527     3.165124
O     13.568035    35.163227    14.041370
O     25.583081    23.565375    16.047902
O     31.044693    47.877630    24.638110
O     17.562079    51.748559     2.044416
O     29.847599    31.221174    25.977134
O      8.520625    12.885465    41.464777
O     35.531120    42.337279    24.729704
O     48.216727    34.267049    48.507210
O     14.345435    55.411983    29.177369
O     17.987423    39.278106    54.325143
O     47.157514    37.971994    14.013256
O     43.624676    11.817820    46.565820
O      1.050637    22.399675     4.498981
O     35.719862    50.530371    32.944420
O     33.098131    33.509976    33.176972
O      9.086116    33.622880    21.980145
O      6.792652    29.194098    48.673095
O      0.259626    16.471504    17.954961
O     27.329509    27.906658    43.954391
O     14.234831    22.756243    48.150953
O     49.101986    29.091602    35.793460
O      6.718063    41.953534    31.388238
O     45.562915    13.177871    12.790627
O     16.449132    32.814569    47.157471
O     21.201736    36.774276    30.553240
O      9.486741    19.739974    42.220970
O     17.412566    39.232085    19.001053
O     47.520121    14.314038    50.838130
O      0.681456    27.466509    42.019545
O     21.402408    15.753731    18.717333
O     23.137991    15.166929    46.453465
O     18.479465    46.512769    17.547369
O     15.516537    21.650941    54.656854
O      6.474880    22.204260    23.202717
O     49.585864    45.917362    20.670612
O      2.147290    39.767577    18.543126
O     53.457621    29.683287    46.696980
O     32.454789     2.570762    43.241272
O     25.186887    23.628194     2.723822
O     34.035135    54.336663     8.281739
O     43.968040    19.079222     9.057472
O      7.232707    40.433179    23.605707
O      7.536586    55.825199    29.309996
O     34.534697    32.585568    26.866268
O     36.229187    47.091727    10.258596
O     50.799825    54.146884    10.216493
O     23.201129    30.689669    25.493619
O     11.513231    23.806181    55.427449
O     48.731608    22.131303    55.834939
O     29.670637    51.786047    35.149046
O     46.782148     9.034977    44.249389
O     24.108498     0.201595     4.330631
O      0.989032    40.178933    39.603504
O      4.523021    45.148217    34.757692
O     26.450414    26.083342    35.604704
O     50.552706    15.040773    46.904203
O     37.282599    53.409554    20.530551
O     42.890269     9.059321    26.197773
O     33.767669    16.795846    31.775839
O     23.706809    13.253671    55.582874
O      7.387054     6.004737    29.391200
O      7.946326    43.927389    56.135630
O     48.178339    14.104019    46.478156
O     41.384609    17.992620     6.833409
O     46.989352    28.850319    23.272487
O      5.755807    27.539282     3.541825
O     15.016421    42.680598    14.953678
O     19.787375    13.865590    55.066276
O     22.429060    16.507318     2.451140
O     16.233509    36.636962    28.704035
O     52.195474    55.893399    46.834350
O     25.880023    36.255564    17.760144
O     12.023202    45.582108    24.725257
O     29.314002     7.825544    53.138914
O     45.025137    33.918374    43.475524
O     18.236302    36.130872     4.884322
O     47.654000     4.060833    33.767086
O     16.817055    19.600687     2.438301
O     23.761970    10.961583    53.564333
O     54.979145     9.933849    30.236066
O     53.217907    23.847515    56.183776
O     17.544436    29.532337     8.085579
O     21.190700    34.962158    49.811372
O      7.170330    47.471869    17.471047
O     55.372009    26.708789    21.784669
O     54.911033    53.715294    55.550737
O     37.616152    22.082702    18.460307
O      1.080803    26.836301    14.163133
O      4.437170    53.176024    38.069777
O     29.437524    46.101811     0.052043
O     39.518852     1.152100    36.466313
O      7.167328     4.455242    26.103734
O     47.460891     1.924301    45.673711
O     44.913789     6.829100     2.053133
O      2.976368    39.054388    38.498556
O      1.467452    14.649932    34.668146
O     48.314147    22.383753    21.753318
O     30.381301    46.984250    49.582860
O     26.499059     8.774993    13.310857
O     33.363919    11.349596    16.760222
O     25.025135     5.142596     2.355095
O     11.258160     1.913000    37.710701
O      8.236200    24.614411    33.959356
O     18.435050    30.731329    53.952163
O     24.155819    25.637222    18.297702
O      3.939518    18.229223     6.082027
O     26.476025    19.920237     3.806049
O     18.755645     4.061111    28.660364
O      3.934463    14.612033    52.083930
O     39.864602    32.488816     5.905248
O     37.994277    23.296124    37.307375
O     23.443621     5.584753    24.459875
O      6.946542    25.974538    14.143449
O     34.057870    35.616572    46.758017
O     43.513495     3.095402     6.080401
O     33.355960     0.745175    33.291035
O     15.620721    36.574026     9.654804
O     39.657859    20.454237    18.230209
O     24.270615    30.866948    41.542963
O      0.193862     4.812969    34.948675
O     15.324890     7.404626     0.733900
O     18.578676    12.020420    11.695258
O     55.610273    39.373002    35.085437
O     38.611952    25.743827    47.581633
O     21.835609    28.446060    43.956786
O     19.716910    56.457561    11.141475
O     35.247429     6.629196    44.983638
O     37.573112    40.902957    39.585092
O     18.445448    40.193243    42.172784
O     11.688019    21.357087     6.881220
O     46.049320    55.914496    35.106093
O      2.170171    41.323160    46.050413
O     35.132645    56.059276    34.799190
O     41.212628    48.870444    52.688184
O     34.561143    30.633834    39.446476
O     46.274759    42.983418    22.297379
O     21.808105    32.453511    50.098226
O     28.863836    45.398909     2.763926
O     47.162346     6.052206    24.266103
O      8.484704     8.842560    33.010834
O      0.296238    43.883228    43.917478
O     26.192120    38.337825    42.618613
O      6.489759    42.777847    27.757543
O     24.621612    34.114170    40.564183
O     34.722502    46.233168    51.173628
O      7.514907     6.830772    44.572721
O     41.333236    38.256788     3.382571
O     30.375025    53.859421     5.107061
O     23.518914    19.956283    28.535094
O     49.123041     2.680882    49.307887
O     19.757569     6.460868    45.409771
O     51.608793     8.691537    19.285261
O     48.055113     3.012898    39.953369
O     12.077081    38.540509    38.546925
O     47.154818    17.394023    32.213437
O     44.571157    27.653514    28.870110
O      6.900674    13.391580    48.068199
O      1.313479    12.008511    19.326026
O     45.163231    50.361350    29.949795
O     42.542923    18.688784     4.664734
O     33.638359    22.016869    21.944989
O      4.035290    38.097530    45.512841
O     17.805095    46.018366    34.357594
O     38.780625    17.301588    22.774117
O     27.139371    19.248736    17.480163
O     30.179310    19.441812    27.899926
O     31.576754    20.756991    18.662744
O     22.746209    48.811146    23.532157
O     17.661179    42.227270    28.460590
O     29.806793    13.924784    24.002787
O     56.219636    21.832534    37.366217
O     30.212240     9.077663    29.781493
O     33.249694    20.284252    42.104915
O     53.632816    28.172639    28.271376
O     35.368614     6.497130    54.914535
O     51.045507     6.288719    49.185846
O      3.112191    44.882671    47.845891
O     30.983709    29.448855     8.602715
O      3.475919     3.169536    21.224580
O     53.735502     7.947809    42.417667
O     14.160103    12.412949    14.106772
O     38.105554    37.528779    29.824947
O     33.672728    17.685543     7.365772
O     54.819664    28.763188    17.531739
O     39.440876    16.160646     3.116362
O     38.201035    42.487092    55.367319
O     24.877752    48.970743    19.261546
O      5.333695    16.799346    52.152705
O     23.591221    32.156962    48.242225
O     52.502627    17.363389     1.395497
O     24.864607    27.673605    54.108716
O     54.289115    49.017850    48.931288
O      3.846763    28.783046     4.850522
O      1.775576    56.119937    46.593767
O     13.621841     4.270492    20.497091
O     50.855232     4.457383    18.750146
O     42.473894    52.967720    41.244002
O     27.037054    26.848649    14.176437
O     24.144283     5.068533    33.304995
O      8.870623    55.716610    36.916712
O     39.490487    53.794212    13.309902
O     49.360847    43.061349     6.971445
O     12.832543    25.096382     0.663952
O      4.415539     3.886376    42.464427
O     53.481941    56.512082    21.117426
O     51.270658    39.416269    46.290760
O     38.282749    30.788112     8.498934
O     49.681263    39.564691    42.250534
O     23.082632     8.678224    44.298107
O      0.077690    11.203729    53.322498
O     19.992936    49.654322    49.074658
O      5.433753    56.080736    55.089542
O     56.247983     2.443831    20.665085
O     17.449501     6.020293    56.417537
O     29.940749     2.749733    13.501300
O     27.748850    10.370706    37.813019
O     37.848619    15.358662    29.431948
O     45.007509    22.718200    24.000795
O      4.636656    46.431357    32.366082
O     46.980756    38.135061    37.058729
O     52.155622    32.306456    44.816819
O     11.992188     4.282257    23.628464
O     49.134313     5.666095    25.924448
O     38.674667    14.455539    20.012914
O     25.205103    47.733687    48.651534
O     21.077906    16.054206    26.246485
O     27.853015     7.454735    46.185149
O     32.748729    36.620729    24.221335
O      3.302634    23.475221    17.092789
O     50.087239    47.739011    15.269179
O     40.727569    45.053954    18.485039
O     30.919949    35.608896    28.768696
O     48.032463    41.384054     0.561484
O     17.739875    14.190711    10.063705
O     33.655008    28.312661    13.061956
O     19.880756    16.882128     2.101492
O     29.557593    33.407078    54.593185
O     15.751793    35.437993    47.382346
O     13.352715    17.067207    29.979317
O     11.470633    14.398357    48.123522
O     21.330552    10.617860    44.102979
O     37.700115    44.868030    49.096069
O     43.425385     3.292633    25.049005
O     30.616492     1.984525    49.978742
O     47.495864    41.986930    46.418881
O     54.965775    13.720529     2.745803
O     55.503423    27.219658     1.416190
O     22.283297    45.542677    55.428160
O      2.251377     6.141794    36.444946
O     16.978577     4.745864    52.614079
O     20.952178     9.205133    17.387676
O     19.202231    32.454153    42.911031
O     43.084558     3.893922    44.209084
O     35.258126    48.032490    45.976923
O     55.729898    47.563879    55.950541
O     23.090048     7.636170    49.201451
O     20.356240     4.826288    30.611315
O      6.393939    39.162427     4.314982
O     52.713976     2.428372    19.161394
O     24.247441    41.151807    18.746866
O     30.766538    50.090114    31.455455
O      0.708927    41.059862    31.299373
O     43.401513    45.117324     4.429090
O     26.154087    49.131226    41.024006
O     17.583775    56.548560    45.196195
O     15.567997    15.334329    56.119635
O     29.887201    42.160374    14.365734
O     53.555994     6.427502    48.893215
O     53.573022    47.889791    22.212565
O     25.227937     1.566313    16.663296
O     48.320169    41.941611     9.044927
O     30.331317    23.053914    18.054652
O     39.040263     1.994970    53.271482
O     35.984733    42.241980    32.999511
O     13.730870    16.726326    10.357161
O     49.175122    54.401054     6.830070
O     21.107150    48.052629    25.463396
O     19.152232    39.055078    11.285895
O     34.540189    23.151271    41.189041
O     55.108901    47.759186    14.578119
O     33.112256    30.982529     9.064304
O     16.608862    36.452322    37.409376
O     34.714705    22.232024    31.831352
O     45.452081    33.853500    13.780917
O      8.579255    11.752842    11.916661
O     41.274138    17.660674    41.824513
O     36.258449    31.659633    25.050694
O     14.600763    27.167854    42.039227
O     12.654847    10.274951    24.479989
O     54.827407    43.452889     6.657331
O     46.605488    52.499992    11.701745
O     26.577273    35.108945    30.928702
O     13.544371     2.532971    45.414956
O     33.902732    56.268628    15.354041
O     24.820853    36.589767    29.766511
O     15.204145    24.109123    16.342553
O     11.202605    13.948019    25.717826
O     11.074829    27.648547    50.572604
O     22.052317    44.319027    26.821617
O      5.979091    44.795567    36.882438
O     10.961563    47.380086    44.399846
O     28.182284    53.118212    49.395611
O     13.839193    37.110547    39.960215
O     21.609220    38.978096    51.243334
O      5.693238    52.752899    35.740062
O     11.736975    20.640225     2.926828
O     44.708183    43.127084    30.587444
O     13.703761    30.677084     6.172417
O     37.152123    17.089026    24.843848
O     56.057664     3.669109     8.735932
O     42.017994    28.183672    18.358540
O     53.982833     8.988080    49.364703
O     43.918937    12.047863     8.242366
O     42.669148    33.045870    20.769510
O     29.583744    33.816055    46.013609
O     42.783783    48.554143    46.931905
O      1.654771    10.730927    13.831551
O      1.574595    47.543008     0.323102
O     13.641532    37.210448     4.396993
O      3.507897    21.036998    38.736521
O     51.935887     4.791235    44.622479
O      3.794597    42.893690    52.589232
O     49.940881    50.024512    19.251821
O     22.766891    18.695099    30.658941
O      9.478932    18.828739    35.468154
O     47.634458    18.760632    38.479154
O     35.655910    30.952465     8.495628
O     42.627793    47.531785    32.465487
O     10.244360    22.762170    46.347069
O     19.130378    14.685062    18.138465
O     35.760327    12.136051    16.198719
O     18.451016    22.644568    22.121297
O     51.780265    25.553261    11.869349
O      4.092554    42.431108     7.206563
O      2.171216     1.886505    51.617908
O     30.566362    15.257373    38.329848
O     30.071835    32.216200    21.112603
O     16.221555    51.462682    30.227859
O     55.195210    55.572595    32.180998
O     36.669227    23.764473    39.896050
O     46.999205    37.164723    31.107163
O     32.647488    40.760532    43.400261
O     22.598382    23.970616     5.933295
O     54.226704    32.107878    53.833242
O     10.741685    47.468986     4.321028
O     45.050692    19.835281    43.808150
O     12.914323     2.216020    28.495046
O     51.153799    55.336274    24.269297
O      8.307621    32.392055    34.669440
O     29.645234    52.511002    39.976160
O     23.895419    33.532653     1.418030
O      1.710811    44.840387    30.702309
O      2.239770    42.718619    15.638218
O      5.519332    53.718291     8.907948
O     37.679802     1.119052    55.272716
O     28.533383    11.951233    15.220711
O     43.633514    38.717828    18.816095
O     38.480473    43.593846     1.058893
O     47.479597     0.938383    48.013475
O      9.244021     3.125838    42.197583
O      9.939187     5.783708     8.760686
O      5.450179    48.833592    31.411897
O     48.652844    38.320698    45.889463
O     56.392495     3.584049    23.006272
O     11.217083    36.714195    18.426208
O      2.615454     7.936148    29.755669
O     32.036776    22.102669    38.434911
O      1.923156    49.231176    43.077567
O     14.138429    45.362164    10.218428
O     50.726490     8.604310     6.326813
O     28.857740     0.231122     6.309666
O     53.656068    54.081836    49.243992
O      5.088091    16.630791    36.284771
O      7.000915    27.100731     1.209112
O     10.414889    40.508899     2.242659
O     10.148202    32.882227    51.286367
O     24.391730    41.331528    23.777999
O     15.645722    34.070868    28.690957
O     14.898427    43.663075    51.734811
O     41.133101    22.081574    14.803129
O      2.182988    27.974735    35.962276
O      3.836339     5.803912    49.015560
O     50.044319    31.527885     3.653522
O     17.909559    55.083250     8.356308
O     46.153273    36.229586    42.745582
O      9.788229     3.912541    18.889125
O     11.245123    55.266279    21.667204
O     39.023272    30.710911    29.023560
O     51.090515    23.696652    52.758321
O      5.884991     8.952229    53.887718
O     32.855502    39.361055    17.708603
O      9.602544    16.764995    54.941790
O     39.059803    11.197197    46.572062
O     44.833011     8.796688    47.146428
O     48.373531    53.760911    38.578481
O      0.225707    50.010983    49.333445
O     13.036611     9.222653    34.446627
O     49.156471     2.304838    22.428438
O     48.518969    11.285846     3.672233
O     36.775301     0.284188    23.325521
O     45.643348    46.299261    17.797393
O     20.137774    20.888404    26.051312
O     48.648366    30.591603    22.181674
O     35.943705    41.002182    14.039139
O     41.677523     0.909318    41.964729
O     48.317667     5.766555    18.379454
O     46.425646    16.100626     6.824526
O     53.291952    29.897532    19.301142
O      7.214745    17.733483    16.858230
O     31.871169    21.513483    56.536458
O     54.863809    42.703507    42.831096
O     38.703561    11.646427     9.455515
O     20.084151    48.703591    51.516569
O     26.328086     6.883965    39.556703
O     40.880323    45.227405     3.656137
O     42.105472    54.010149    12.839562
O     37.676840    39.693586    46.189931
O     25.572935    27.238912    33.535710
O     43.858696    38.428917     5.785518
O     26.265745    49.541023    50.071398
O     25.343892    27.722128    47.546114
O     24.240209    22.681525    13.851614
O     55.665469    28.037612    10.283699
O     36.455708    53.492131     8.922958
O      4.439553    26.188396     5.249131
O     38.244265    13.807938     8.162721
O     33.518509    15.775404    50.748267
O      1.741102    52.828289    43.072982
O     43.610009    50.527265    34.937005
O     38.375222    17.905176    28.708988
O     23.385567    17.426644    21.266076
O     37.416701    42.344119    29.585258
O     55.413385    36.981218    50.406288
O      6.842120    38.171253    10.511521
O      2.073411    33.089322    12.372105
O     33.056309    25.104041     4.217493
O      9.176290    24.095896    54.339132
O     19.644366    17.722293    27.633021
O     55.957837     3.567496    32.585877
O     40.413634    22.864259    54.274287
O     24.663011    18.816569    44.260054
O     18.102549     4.054890    54.812104
O      4.185688    34.293572    50.429548
O     26.586221    42.113944    28.346919
O     12.519149    25.111561    18.986855
O     15.654807    12.330194    39.770882
O     33.143795    48.964536    36.495966
O     29.266412    55.315671    53.307693
O     16.795293     5.833326     4.779150
O      4.883332    44.722298     8.291571
O      5.348684    19.718628    22.470281
O     56.208080    37.107562     8.959652
O     22.054174     9.186847    54.313645
O      6.685177    42.760330    35.418674
O     47.371979    46.070533    21.898255
O     44.516462    38.198685    36.270874
O     33.537570    18.006036     4.764746
O      0.935134     0.736317    26.967810
O      9.871502    42.972420    54.657686
O     48.034864    47.195383    53.577922
O     27.788669    52.240417    41.733330
O     11.276479    51.826582    53.221776
O     34.926112     8.273704    22.961536
O     54.181423    56.091733    29.830087
O     44.562758    48.432360    18.625764
O     47.104335     2.751906    12.771785
O     45.514311     1.838882    14.930109
O     12.968973    19.711029     0.747926
O     56.281239    22.569623    48.490566
O     27.194705    40.777965    49.622806
O     17.453859    34.421660    32.648542
O     54.885611    41.204920    55.560261
O     39.448600    47.326546    41.229897
O     43.823203    38.361306    29.190354
O     27.499116    42.900178    51.236015
O     46.030958     6.843138    19.535287
O     28.349836    50.025934    15.940259
O     51.045002    45.836752    29.546189
O      3.901522    11.640683    18.546891
O     16.054437     9.429429    43.408476
O      2.659446    32.335360    18.063889
O     44.713004    31.168708    14.994171
O     48.156306    47.057862    42.089397
O      4.557373    38.459601    32.679484
O     46.693155    22.449548     9.318785
O      0.648576    38.849241     6.436651
O     18.356781    16.160965    38.082997
O     28.127300    31.414883     3.065812
O      0.221903    26.818124    51.204562
O     39.104941    30.702987    40.120287
O      3.378937     9.153948     7.988686
O      3.372677    30.105966    16.786672
O     45.101680    51.051304    16.327238
O     43.413203     9.852608    45.030464
O     43.709949    55.761173    42.151792
O     24.687663    29.992724    37.761643
O      4.881361     4.823978    24.955855
O     30.762179    54.648349     2.620414
O     14.288529     8.478571    36.844492
O     18.961909    34.537228     6.864777
O      5.207677    53.967374    52.261946
O     38.374846    22.391871    43.651923
O      4.780212    46.782298    20.854293
O     19.458440    28.850581     9.692444
O     42.031566     6.970818    11.112199
O     43.066671    34.723970     8.946875
O     13.511702    15.189216    25.834447
O     18.887455    16.072369    30.822508
O     11.780485    34.206563    48.628971
O     56.191790     3.020295    42.305355
O     30.377928     9.255278    49.264832
O     46.305197     0.146076    30.199961
O      5.395423    22.253752    18.353246
O     15.856553    52.454460    36.473339
O     13.836946     6.978844    17.749410
O     48.856293     1.250005    38.210862
O     30.877785    49.899949    46.422576
O      9.373932     4.459201    30.401752
O     51.800928    12.901393    56.263626
O     48.389393    19.339781    11.151398
O     32.259756    52.654277     3.145914
O     36.253695    13.876533    38.526832
O     47.181693     9.563455    41.125263
O     45.393922    14.900397    52.339785
O     46.713899    12.375223    27.313893
O     44.352504    52.812736    34.120773
O     48.216376    26.656792    24.269097
O     15.849907    13.143372    18.164151
O      7.045035    43.080030    15.490786
O     14.714047    32.752341    30.681483
O     49.139725    27.426963    37.715831
O     34.835492    26.504696    18.321651
O     29.428940     7.453264     7.684957
O      9.466011     2.074470     4.184395
O     54.975949    29.172512    22.640197
O     53.623952    39.590874    38.751637
O      4.521623    24.689893    32.812660
O      4.243035    21.938864    43.546277
O     33.133803    39.518122    56.253821
O     21.011519     9.788419    34.558399
O     35.835357    44.385331    22.911345
O     52.956850    37.833351    52.517717
O     12.585273    44.737269    21.806624
O     46.183200     3.247055    29.415682
O      7.927656    49.485550    39.081562
O     41.259755    19.337287    37.518676
O     10.265829    27.113583    38.930123
O     41.495971    12.658960    34.746014
O     46.807799    44.232224    54.096525
O     52.006092    18.800814    24.080244
O     34.107298    10.812577    33.087235
O     13.872482     4.007305    13.557209
O     26.775613    13.463917    11.481275
O     18.286399    24.615776    41.713901
O     13.610834    13.181553    42.196087
O      1.197721    50.382675    16.790909
O     52.359160    17.508469     4.130209
O      2.868290    24.729467     2.449782
O     19.177590    36.172217    42.275052
O      0.836757    39.577652    37.011128
O     38.799031    49.820982    29.155617
O     16.458962    34.343598     0.654698
O     20.950259    23.385330    17.667343
O      4.973562    55.148012    46.110256
O     11.286356     1.777325    16.576565
O     52.564880    14.175934    51.463390
O     50.342317    52.282813    20.524055
O     51.003105    19.245479    11.101828
O     56.051565    24.506665    26.350076
O     25.941489     5.408804    35.166795
O     48.309076    53.421027    10.011481
O      4.437337    40.924459     0.916445
O     14.988201    11.259450    46.843981
O     23.192406    16.963663    35.594777
O     25.569631     8.223117    45.048865
O     26.681915    48.092258     8.586519
O      5.228395    27.297352    49.533818
O      7.503538    21.382512    54.027956
O     36.433056    50.580964    12.577593
O      5.121984    42.970101    19.540160
O      1.778593    31.446769    39.503382
O     28.121276    50.605377     3.463161
O      5.330211    50.840310    16.321535
O     28.825598    17.110226     4.983091
O     49.622276     2.361744    11.652196
O     41.748042    50.120092     3.705940
O     27.300982    21.331591     1.676097
O     26.247686    42.153198     0.462131
O     54.648636    15.661575    19.262896
O     54.125821    39.772699    28.261072
O      3.703354    15.213228    14.708340
O     27.062715     2.793882    18.048279
O     22.089769    10.210858    27.454556
O     39.852990    29.207994    14.292428
O      9.107176    29.595793    26.972030
O     16.400455    41.271939    11.692653
O     22.161235    48.535511    34.460262
O     43.366694    33.092075     6.690714
O     34.544812    50.423072    48.802724
O     24.545235    47.615319    34.143300
O     43.477835    14.407889     3.740151
O     20.162843    54.055144    30.587256
O     25.589554    45.329824    49.739512
O     44.613327    33.213246    18.961995
O     52.184771    24.081438    45.321173
O     28.380603    21.292834    47.396806
O     20.697758    30.357144    45.448688
O     31.622651    24.205786    29.791906
O     44.952975    37.389436    15.374561
O     46.213637    16.731294    40.801239
O     12.177511    27.382607    42.890734
O     28.432535     2.243570    28.141877
O      2.917926    36.113193     1.243473
O     28.113034     3.682425    24.035787
O     49.612610    11.957421     9.998131
O     29.487711    31.302820    23.432601
O     31.406217    36.076325    42.398606
O     17.444843    15.202790    51.289199
O     18.703692     3.750687    40.604664
O     46.629121    16.753179    23.982687
O     22.016852    18.471654    40.504491
O      0.458474    44.610934    16.215275
O     42.551505    44.708666     6.894790
O     44.174672     0.331734    38.538746
O     55.071416    19.489350    37.209257
O     54.047923    15.268677    11.760721
O     36.450963     7.610523    27.181944
O     35.061304    21.291282    26.778429
O     52.791322    40.429389    33.295772
O      4.702023    40.815045    34.330771
O     53.090508    26.350122     0.515809
O     31.986226    42.692068     8.612592
O      3.514762    26.472633    26.640807
O     40.161483    51.687036     8.128834
O     53.859072    45.850421     6.474265
O     11.681881    53.372824    23.465932
O     11.878312    38.868055    47.321209
O      5.111100    20.194361     4.792465
O     45.507321    40.845452     0.605717
O     22.472988    38.609108    44.488874
O     46.024514    44.341608    32.667135
O     43.996615    45.532781    31.522802
O     48.661119    37.162189    41.936075
O     48.399429    34.964954    35.330935
O     50.626809     0.422076    33.423487
O     15.016288    40.746379     8.924441
O     15.435970    10.428179     7.191645
O     27.493978     8.906147    51.459899
O     31.308435    13.751555    40.393866
O     10.340659    22.871695    26.721878
O      4.380176    41.328789    28.095518
O     50.127389    55.502709    31.350885
O     28.608568    12.788728    37.439238
O     41.127340     1.609447    24.171455
O     45.546230    15.030941     2.040320
O     23.976456    27.193846    28.127098
O     52.769870    19.861416    17.484001
O      2.521568    16.814403    37.028414
O     31.235601    38.940967     8.379963
O     15.951267    15.606132    11.377852
O     16.324567    22.956487    37.481339
O     24.886755    25.584278    23.349249
O     17.556876    29.356401    33.872983
O     36.110296    29.495966    17.616164
O     40.268271    26.687624    30.210491
O     48.774771    18.804026    28.891718
O     28.621748    53.175732     3.240861
O     43.403056    10.227202    52.582227
O     22.455804    26.471173    38.639562
O     38.744654    46.344578    11.108579
O      2.459079    51.264448    20.512959
O      1.867889     3.336526    54.434518
O     52.926801    13.651294    29.129286
O     32.537788     9.827076    12.414419
O     32.082522    13.446900    28.511284
O     37.646919    49.872912    54.979418
O     37.864138    38.436378     5.927799
O      5.091805    22.073841    32.368044
O     14.165548    17.566525    56.384937
O     47.898855    24.766204     9.775451
O      3.321939     0.875683    14.364102
O      7.554669    48.058812    27.242432
O     29.247973    47.595983    15.033234
O     15.494647    28.996346    46.887214
O      6.932481    51.542709    24.263407
O     50.159476    30.775283    51.577489
O      9.944145     3.550138    22.220435
O      8.306253     5.073351    40.787271
O     35.860788    49.155178    53.109438
O      2.038057    55.108589    18.387286
O     56.319645    38.848694    17.902522
O     53.270217    33.822333    46.612793
O     26.886173    49.471916    56.558223
O     28.886838    11.662078    39.900744
O     47.089121    20.489231    36.602004
O     37.752955    11.804415    39.160966
O     44.535116    39.490194    31.503628
O     54.683071    16.546134     9.556625
O     36.562675     8.907540    55.007781
O     24.582319     1.704853     0.806479
O     22.464171    18.002959    33.279471
O      7.198251    47.363503    20.150775
O     33.884904    43.566896    49.094457
O     14.860054    55.571267     4.275231
O     55.874661    45.625508    40.634346
O     51.950747    44.747029     0.163898
O     11.958614    27.016640    13.655433
O     13.659472     8.422639    10.722144
O     40.802490    14.202319     1.814154
O     12.752310    12.463966    16.411371
O      8.958782    52.152441    25.766577
O     51.415250    29.920095    53.740427
O     23.658681    53.288888     2.033820
O     32.607675    28.602663    36.405532
O      3.030932    54.479720    29.552486
O     25.256630     6.106336    48.715960
O      8.185722    12.449034    31.537448
O      4.229163     5.728895    16.312720
O      8.022856    12.043818    28.859997
O     37.855222    31.522430     4.392712
O     28.126028    31.888170    12.826379
O      5.517904    13.727717    18.525107
O     15.663922     8.489296    52.112790
O     25.813869     0.002924     2.424613
O      3.506932     3.378640    49.912813
O     36.687901    33.730683    50.735146
O      8.318339    11.185725    50.004480
O     54.253828    31.893678    26.544997
O     35.804890    14.721599    52.735408
O      5.459234     4.717650    20.673605
O     20.230496    13.414619    13.163722
O      3.174308    45.892683    28.661016
O      5.581768    45.642538    10.718613
O     13.273983    35.661131     2.413748
O     36.452424    56.424391    15.435786
O     15.170166     8.858275    19.117492
O     19.502144    42.437628    43.138943
O      7.849126    26.108912    45.429217
O      8.557265     8.295586    54.021568
O     38.081333    39.393228    37.465635
O     28.064817    35.391618    51.215843
O     47.290038     6.682898    45.041004
O     52.955301     1.942323    16.734858
O     43.030962    30.408467    10.253172
O     19.470356    14.319825    49.785877
O     46.972538     3.599001    23.245609
O     17.237776    40.814678    16.923599
O     38.790724    45.507209    38.608843
O     49.315366    17.339700     0.186918
O     40.074825    18.382533    20.782670
O     41.076744     9.177539    34.321685
O      3.715042    31.669452    25.218297
O     40.682267    12.016033    48.468404
O     30.076901    41.471891    53.771582
O      7.363203    47.869091    35.256239
O     53.484555    23.639613    40.817717
O     54.343293    55.189935    53.452227
O     48.040394    53.567641    14.821166
O     36.732671     7.318734    52.898146
O     38.435534     9.317870    19.570781
O     48.175601    19.676649    15.682726
O     32.742157    11.073440    42.430542
O     42.590030    46.721819    22.877683
O     40.318893    36.688019     0.181235
O     35.006090     1.050799     1.208589
O     14.230605    10.726365     9.488150
O      8.472936     5.683049    53.568395
O     50.499418    20.697250    16.391836
O     36.319480    29.271894    33.139522
O     52.611247    31.867624    48.163072
O     38.762790    30.197789    26.337045
O     19.332618    24.854883    19.269634
O     19.692569    36.552791    26.065065
O     50.322706    33.949239    23.821614
O     52.163243    24.640494    14.405285
O      1.872049    19.848154    14.718458
O     10.732051    49.524140    17.026282
O     19.990889    10.268396    40.840839
O     40.116366    22.458217    48.091791
O     35.883759    29.525621    12.571194
O     16.097385     8.290041    25.792620
O     35.094833    19.475782    53.145642
O     27.121755    11.032545    49.928028
O      3.985372    10.019739    43.362863
O      8.053734    47.189493    37.693313
O     13.796040    46.066613    17.252807
O     44.812684    11.310324     5.910498
O     49.400875    39.700117    26.162674
O     31.264035    43.607266    54.692392
O      9.436909    39.311922    48.099572
O      8.215867    26.925382    40.492427
O      9.473779    11.091071     9.450580
O     36.568095    13.700901    47.819068
O     44.469776    53.587305    16.055863
O     43.152556    31.402997    25.514388
O     49.628034    48.492015    23.911049
O     33.838595    46.563985     3.850494
O      4.978854    56.195632    30.172978
O     19.883981     8.417864    12.335996
O     47.419495    47.302441    26.716873
O     34.425826    21.025063    56.101328
O     37.027130    31.593623    18.857838
O     10.530521     9.436672     5.274925
O     40.740563     9.480835    47.422764
O     12.435367    54.174811    27.851336
O     26.720920    48.075047    52.407827
O     52.391544    29.882794    32.607313
O      8.897282    52.977546    31.508090
O     38.309404    18.976522    31.921172
O      5.590818    19.998315    50.766937
O     49.512065     5.890799    23.266491
O     52.613024    43.269943    17.905030
O      9.737413    25.310609    47.078366
O     15.865738    49.383204    48.459613
O     38.567028    49.353417    52.698734
O     29.801349    27.910174     6.880717
O     47.432860    20.094493    27.136517
O      1.512855    10.035494    41.114120
O      7.119739    54.434968    54.019646
O     31.807134    49.553770    26.836655
O     49.112721    15.529349    18.555449
O     33.383976    17.896683    40.740142
O      7.120954    30.297374    28.598225
O     39.880580    16.218755    35.761773
O     31.221568    33.963698     9.341073
O     50.106496    52.043163     5.810100
O     53.232186    48.426315    12.347329
O     43.406373    33.251638    36.100252
O     36.428621    12.898525     6.641376
O     43.996492    49.392771    37.204911
O     55.761781    17.444503    11.655118
O     43.640175    47.501965     0.000989
O     11.269471     6.767354    22.962667
O     30.023742    27.495068    30.170937
O     55.235624    25.014458    52.900800
O     33.299038    23.423940    55.325413
O      5.081335    15.655398    28.226075
O     55.910598    50.987070    10.541148
O      5.978657     0.700262    18.126583
O     33.014749    49.336319    14.181741
O     50.682886    49.466269     5.392308
O     26.345054    43.666730     2.608362
O     31.788772    34.100856     6.220590
O     54.994839    18.597189    33.409586
O     12.010686    56.030264     2.402174
O     21.658383    33.822451    52.325721
O     28.787197    14.598387    19.233691
O     50.153594    51.197291     3.361906
O     35.003053    53.235953    28.595560
O      4.865429    25.167924    12.577449
O     37.161436    29.052768    28.206118
O     44.813070    50.373810    46.935363
O     42.817166    52.013250    17.278843
O     41.187311    54.622532    25.290202
O     56.197021    47.508329    49.405797
O     43.880722     6.340048    29.008015
O     18.149530    27.336047    42.060723
O     42.064679    17.127722    10.609176
O     33.786037    19.228853    47.170645
O     39.604984    39.049653    28.262626
O     11.487014    50.842545    48.292440
O      8.272718    31.730368     9.945598
O     40.731342    32.853017    35.959857
O     24.352656    19.266119    34.512313
O      0.199317    15.026901    26.634143
O     15.527701    16.009719    21.711078
O     35.813819    39.922702     4.959991
O     29.210662    15.417627    11.734886
O      9.230315    20.919606     2.132573
O     21.097300    21.723959    35.215150
O     41.217826     2.833084    40.117246
O     15.287526     3.065904    37.762790
O     27.076151    34.294058    39.280017
O     37.127833     1.546431     9.134722
O      1.386444    26.508754     1.097651
O     54.785789    49.587408     3.328146
O     27.022084    46.183860     0.951937
O     16.457515     0.239758    51.564595
O     46.178582     2.844535    31.992790
O      2.398135    15.210318    54.000404
O     24.840953    36.460819    14.005850
O     16.620225    42.267221     4.264151
O     12.680053    22.428095    19.159749
O     32.468660    41.634852    50.204925
O     45.963260    42.428593     8.002839
O      3.673200    40.969629    20.355607
O      3.968174     9.544793    31.168331
O     11.496747    17.291327    19.815390
O     28.756882    36.993743    33.400749
O     23.600801    39.379869    22.155078
O     20.721931     3.237665    14.342357
O     42.399242    13.671740    32.426256
O     29.662234    41.560043    50.549348
O     49.801850    19.962084    39.291728
O     31.491156    33.859351    40.828999
O     15.421372    11.145004    33.028776
O     38.489529    39.414568    21.042524
O     25.858969    54.769130    19.959744
O     45.559499    12.829940    10.230105
O      1.445736    49.672730    27.791210
O     44.563742    56.009133     9.058603
O     19.143600     9.197842    28.030022
O     41.434441    46.843760    11.195669
O     31.938105     6.599244    17.885065
O     15.053093    15.725811    52.322023
O     30.486301    22.242525    48.606275
O     48.231405    15.248002    22.250256
O     44.513678    51.029805    49.524080
O     14.450071    42.889901    35.610710
O     21.910715    29.263062    23.698963
O     21.040017    31.224612    34.791106
O     13.609582    36.105357    11.489152
O     41.090423    14.036922    21.234997
O      8.513488    47.462561    47.459148
O     50.078740    30.946555    45.991871
O     39.351276     9.639428     5.727165
O     25.274155    39.044461    40.261000
O      5.042582    19.164365    55.498974
O     28.273889     5.456174     6.406233
O     49.647656    10.575593    46.713702
O     49.141584    10.690273    24.597319
O     50.102218    38.430964     5.419395
O     31.115378    21.239926    34.903589
O     16.969466    20.275784    18.634352
O     53.565301    12.775022    40.598132
O     34.022996    21.255662    51.377803
O     38.728030    20.003398    37.537779
O     40.524069    52.120414    42.662924
O     41.238547    37.112798    13.279472
O     52.126389     6.462000    46.714700
O     21.098136     5.558608    36.531572
O     40.874541    14.087084    46.913796
O      5.550330    35.727609    52.514460
O     13.931503    10.148325    16.483880
O      7.344810    40.103763    18.529116
O     24.906722     9.951357    11.636741
O     10.401659    16.369168    22.262109
O      5.783335    33.165195    11.358487
O      1.799302    45.954723    43.723636
O      9.482357    51.949671    23.272467
O     14.705153    25.331069    28.013956
O     24.081990    39.007670    29.034553
O     21.362504    40.980664    17.662324
O     43.860702    43.055580    50.108313
O     19.006637    18.226930    13.293728
O     31.951432    54.103153    41.189654
O     33.587798    27.729876     0.324641
O     45.562928     9.452875    31.060955
O     54.017796    20.606355    31.899977
O     42.001132    28.110222    10.926536
O     14.973358    39.889394    17.764597
O     41.772556    36.337632    52.115121
O      8.450880    17.465393    29.768376
O     15.849340    50.359900    22.927029
O      7.042085    46.116803    42.806643
O     19.279559    27.201508     6.476242
O     25.684268    27.797508    18.645262
O     10.330251    11.701345    13.887830
O     26.332286     2.626906    29.732246
O      6.680185    13.383205    43.337368
O     48.464830     7.193765    27.894167
O     41.606504     9.332146     2.581293
O     18.245747    53.238348    51.232979
O      7.067675    48.664453    42.496282
O     25.543353    19.492888    48.921120
O     34.251371    18.504519    50.903623
O      0.547704    45.603546    28.408769
O     48.832945     6.883278    50.341430
O     52.243593    17.816767    19.007023
O     14.709782    35.892528    24.998236
O     13.336400    23.070479    39.865541
O     28.935422    34.196526    29.422978
O     38.743071    49.282986    15.845921
O     33.108287    44.507940    43.904424
O     12.764830     4.997966    53.950151
O     30.315048    25.693036     5.669582
O     33.722618    18.535120    55.762227
O     38.492639    26.092133    26.739337
O     18.093041    48.287542    10.762950
O     38.385405    27.117865    21.630892
O     48.630403    23.539672     1.389736
O     36.129233    21.165230    40.104292
O     40.185174    16.006856    28.431961
O     46.314038    22.869502    28.053810
O     27.559970    44.221624    29.478612
O     40.467464    19.066637    11.343529
O     21.894754    54.286942    20.845533
O      2.712380    44.650520     6.813289
O     56.126798    33.227412    21.663400
O     51.225522     6.559761    41.920959
O     42.765604     5.364350     2.588386
O      1.023399    28.980536     1.727231
O     24.068214    23.541438    51.963245
O      8.054566    26.069073    55.541922
O     16.730634    14.271103    53.620534
O     25.484308    31.611715    54.155138
O     37.269879     5.621449    23.572522
O      6.009488    39.347123    30.755319
O     42.405923    46.862716    14.447650
O     30.946287    46.259301    36.816841
O     39.950253    31.812835    13.891288
O     35.483132    32.961597    22.970264
O     29.189214    25.422991    55.175209
O     56.237548    28.374339     5.458221
O     11.758161     0.854948    26.406378
O     31.618495    35.460387    52.716524
O     26.423731    34.327420     1.546458
O      1.030993    34.434026    36.337018
O     34.883833    25.305442    54.179068
O     28.556421    56.233051    27.568037
O     38.620646    38.533987    52.471042
O     18.811676    47.477814    48.258347
O     19.619871    43.461587    27.135728
O     44.695702     7.275372    56.219688
O     44.858331    53.802742     3.400608
O      6.111409    54.241234    21.981302
O     15.944351    51.566948    47.099007
O     49.969695    23.914597    12.983486
O     10.525719    43.222449    38.744680
O      0.896815    17.172481     5.246183
O      1.808803    30.106518    45.036573
O     22.589736    10.768770    51.162046
O     25.367579    17.184987    56.192951
O      4.665856    31.907756    13.491575
O     36.937377    31.598178    27.600672
O     24.578879    21.052774    11.625805
O     34.614089    32.952559     9.908338
O     36.724976    37.267650    45.901476
O      1.255780    43.081946    47.694220
O      3.701672    44.576482    42.439379
O     14.725903    12.937207    44.786721
O     22.776947     5.204795    11.320062
O     37.191509     5.567409    38.782001
O      1.055637    25.161893    53.867422
O     51.473885    14.626169    27.266976
O      7.432307    20.115322     5.917967
O     27.651062     8.853099     2.544032
O     22.993621    27.440208    30.510254
O     12.276652    24.600425    27.342789
O     43.924428    39.707341    38.303226
O     37.034363    54.883170    33.628876
O     22.806749     6.733378     7.272195
O      2.776655     5.920545    23.825490
O      1.388526    23.657364    36.559873
O     37.368576    38.902977    15.757023
O     11.432644    15.977862     0.205897
O     35.327965    24.741750     5.598715
O     15.192924     4.426525     9.039400
O     45.536642    26.952361    24.425921
O     34.788245     2.321085    42.093244
O     37.278593    35.584583    21.856866
O     21.148666    25.789558    16.811181
O     47.874236    16.249913     2.051722
O     44.868432    32.506722    53.338954
O     23.584892    30.407833    52.599132
O     29.067592    31.195083    33.366580
O      0.930686     0.745489    19.080843
O     27.424675    27.845731    11.685941
O     38.469463     9.233736    27.239456
O     10.199611     7.806938    20.819778
O     21.577529    30.315833    39.700744
O      4.540593    33.032115    54.372123
O     14.120773    10.885049    55.581268
O     25.391867    34.042750    28.825251
O      3.404161    36.692967     3.709647
O     28.876835     7.739378    41.591971
O     24.053717    52.272133    55.213524
O      2.862530    17.592506     8.415748
O     49.923546    29.312533    33.239187
O     29.180314    12.979529    12.439049
O     17.316121    34.215318    13.403015
O     16.279433    55.311245    13.831259
O      9.706227     9.271825    28.053472
O     15.256361     0.257134    53.901494
O     11.101086    13.162982    55.338359
O     19.097091    46.576566    32.067051
O     51.492462    47.142418     6.478803
O     21.264595    55.120328    18.506841
O     37.272964     7.504465     9.535959
O     40.408253    51.426335    48.431878
O     17.238545    18.347652    26.925899
O      8.929558    32.283779    38.870351
O     37.311029    44.774958    36.649636
O      9.830093    55.768315    19.349865
O     17.204567    26.668692    19.590129
O      4.587674    47.094528    17.297700
O     15.334083    39.781169    13.632006
O     38.517371    21.093127    41.042507
O     19.627682    30.938225     1.779508
O     26.138226    12.443588    54.627409
O     51.744009    36.021336     0.364594
O     14.574359    27.167848     2.129631
O      1.308152    35.190987     8.649123
O     22.769384    12.585690    22.722658
O     12.902883    20.454508    40.296076
O     13.228888    51.122657     1.063521
O     13.721618    31.735698    54.371003
O     32.190388    27.423754    25.832222
O      4.241566    18.541886    11.286049
O     49.949832    48.193105    30.427850
O     49.096976    36.371531    29.946827
O     53.169488    22.124066    52.386121
O      5.688118     0.096634    25.671094
O     28.548209    30.056429     7.893381
O     47.564939    19.750492    33.345397
O      8.959507    22.404810    35.046471
O     17.864370    45.880145    37.014905
O      2.399891    56.470588    31.131918
O     10.293785    12.804435    30.011617
O     32.469340    26.602829    47.355624
O     44.298606    55.719436    48.643368
O     37.856608    55.964006    17.555896
O     20.066518    10.500161    53.017639
O     50.461426    44.614317    43.593911
O      4.084528    46.929236     0.945770
O     19.518502    11.620035    21.126931
O     15.685613    24.778254    35.518837
O     25.384996    21.715710    33.590875
O     27.505787    32.421944    28.302006
O     36.011338    26.819548    27.476376
O     45.028920    35.543222    31.849879
O     35.648599    45.204021    17.772032
O     24.155708    42.496178    12.617026
O     30.420494    35.605672    23.214579
O     47.160142    45.597991    56.454061
O     35.107665    47.986574    28.588194
O     27.483195    14.755059    43.589264
O     19.877020    56.355537     1.343995
O     39.313334    39.692418    30.748429
O     16.284368     0.642221    37.750168
O     37.616190    36.574579    40.957576
O     17.393279    41.395350     9.227949
O     47.559300    25.822310    51.598623
O     45.350452    21.697027    11.439662
O     16.933789    56.205800    26.557564
O     43.796346    30.498515    45.935580
O     47.861977    40.868767    34.770637
O     41.296469    14.606093    49.429051
O     11.147571    46.904644    33.655408
O     37.968653    43.772595    14.058439
O     36.207738    14.491534     3.691811
O     36.222790    25.101837    36.152308
O     16.561321    31.526847    29.096600
O     52.924333    37.920903    27.094991
O     13.029138    51.658421    19.369117
O     32.876198    35.061318    17.034644
O     11.231941    12.959856    41.062908
O     41.386968    28.682360    38.728900
O     18.480715    15.518856    43.099616
O     31.891740    42.700034     0.588139
O     39.305737     2.455699    28.140077
O     34.909328    29.828790    36.947162
O      8.671397    34.591857    14.331968
O      7.545354    34.581377    25.676014
O     55.465725    26.726669    54.735347
O     25.656710     2.173784    53.222457
O     40.508112    10.580970    20.425237
O     33.980477     5.615766    21.018868
O     39.608640    35.894932    39.388981
O      2.437580    41.520938    37.754341
O     11.636543    40.073088    13.956210
O      5.234165    16.598051     7.733792
O     42.293098    43.089941     3.282483
O     17.206780    13.417389    30.311119
O     27.311728     0.921098    34.494931
O     37.710570    15.408337    12.619718
O      2.903500    55.131238     5.144072
O     31.110835    21.313186    43.494513
O     19.750545    47.537710    27.717036
O     34.198286    49.850790    18.274655
O      8.821821    56.137504     4.263242
O      7.998254    35.877267    21.272877
O      6.046399    26.562711    21.987888
O     53.371199    46.078860    10.801542
O     40.357559    48.499795    25.639805
O      4.324494    48.755388    44.406133
O     47.378953    44.115792    34.937937
O     12.208816    14.111771     7.206092
O     29.545032    52.097899    45.990644
O     27.928271    30.602358    50.392534
O     43.543569    28.226121    52.575135
O     49.361657    51.753200    26.961387
O     18.470610    37.712892    16.453323
O     55.746312     7.027990    50.021570
O     37.192301    28.976757    40.525808
O     10.343937     6.148951    32.105181
O     55.603012    10.897257    45.874834
O     34.951033    54.404227    45.477483
O     13.147330    18.675921     8.793919
O     33.486813     6.001089     5.886515
O     30.337620    21.567168     3.555651
O     28.664725     1.499400    25.516469
O     15.470547     2.840655    40.350029
O     15.066318    46.850359    12.960629
O     21.923240    24.002151    56.510178
O      7.975042    54.436612    17.974679
O     44.937384    40.772556     6.256069
O     21.076024    28.753223     7.621056
O      8.636332    10.603467    16.750184
O     41.015789    13.433274    11.901588
O     47.400207     8.446112    18.131565
O     13.207547    18.232749    48.441156
O     26.829924     0.415946    46.963363
O     46.301227    33.268854    39.287471
O     55.536516    22.945658    51.494394
O     49.969943    26.379110    29.629844
O     34.657841    17.026302     2.636070
O     28.527614    27.482283    36.611570
O     12.067515     8.119436    50.102722
O     54.027659     4.077756    15.503036
O     36.640679     8.824657    49.201681
O     27.710764     1.103049    11.176375
O      8.576074    18.443838     1.818513
O     37.572513    56.039949    41.645166
O     45.445366     0.577386    46.272850
O     52.758558    49.358013     6.932532
O     55.156325    56.354451    13.351553
O     25.650609    20.807527    19.163634
O     38.208811    11.953662    19.667868
O     19.377187     9.146393    30.595857
O     25.248136    32.109556    26.832024
O     38.639979    13.650792     3.190162
O     40.149626    50.343749    10.359068
O     45.348830    42.448610    15.135941
O     32.446723    54.586951    16.895559
O      2.208184    30.530861    54.853142
O     28.228223    52.567478    16.947905
O     49.959321    52.430852     8.356121
O     11.025045    53.304845    45.266641
O      4.447900    48.076635    46.946825
O     40.060183    51.061556     1.491009
O     22.929825     0.110931    11.635079
O     11.642063     2.009511     1.521617
O      0.700008     7.987246    34.036947
O     31.710381     5.824996     3.737372
O     38.467198    26.662834    24.190667
O     18.056601     8.333772     0.691715
O      7.204026    46.950291    49.657082
O     37.005465    51.405284    52.667027
O     13.884292    29.041443    35.470685
O     11.635830     3.991829    41.546297
O      7.451378    24.124494    36.471641
O     37.028541    48.202608    37.272647
O     45.768571    36.588655     5.594639
O     39.380272    11.499223    16.030469
O     39.143912    55.891624    39.509773
O     23.680559    35.392872    42.652304
O     26.860659    17.872955    50.640142
O      3.989727     4.798406    55.044846
O     25.831515    24.463191    33.668720
O     53.593940    36.689045     8.267006
O     54.776638    19.763033     0.844024
O     29.727246    29.016491    38.363414
O     50.737612     4.255459    21.730552
O     32.190823    11.505897    26.697913
O      9.385920     5.041303    27.911053
O      4.195458    33.433904    40.338471
O     12.136743    30.755925    16.956368
O     33.334356    34.482060    42.646321
O     12.960941    40.800202    54.081762
O     15.976021    48.953878    26.174432
O     12.774483     7.830220    53.458906
O     36.767478    24.753012    12.430889
O     29.811745    40.676947    37.787240
O     33.391875     6.063649     8.511951
O     38.717753    29.857520    53.605347
O     21.940080    19.257255    35.620917
O     26.789955    34.761647    41.798931
O     36.209429    34.106120    14.826522
O     19.998689    50.102043    14.414242
O     55.867848     7.701713    10.885891
O     48.949561     8.005648    24.673790
O     35.182837    51.165242    35.445686
O     25.768697    10.166417    17.049333
O     27.656365     4.985569     9.894127
O     54.273306    36.326597     0.828347
O     31.043361    41.753296    12.125468
O      2.747212     9.611482    27.819507
O     27.728273    12.547899    46.527784
O     44.305735    12.972422    15.091555
O     47.681241    35.352237    11.349792
O     35.877383    35.804718    42.750159
O      6.790636    41.392057     5.536208
O     53.645915    56.423630    18.152138
O      0.188336     1.793252    13.215515
O     23.775945    32.008151    32.431492
O     43.426796    25.930120    11.330340
O     27.317710    22.945099    32.213628
O     38.076770     7.028174    18.128297
O      1.874348     8.261207     1.340432
O     22.123385    23.192825    45.947072
O     47.764522    55.937813    45.835197
O     24.320457    17.488910    39.383365
O     50.158564    33.280516    26.411864
O     11.833147     4.170014    17.308452
O     41.701153    12.071475    52.288430
O     51.973951     5.045304     1.509731
O     32.383135    14.592676    52.630539
O      5.190219     9.136152    26.518919
O     55.276329     1.628899    25.989112
O     27.825749    36.489530     2.062548
O     43.829745    18.338339    56.045105
O      4.036536     7.885780    18.669339
O     11.777113    46.718724    41.799666
O     10.265002    55.046283    16.825194
O     20.052445    32.630205    19.761506
O     55.313171    21.675563    16.581614
O     11.949434    16.458158     8.383862
O     35.427338    39.027029    47.410566
O     10.895511    32.290565    35.179096
O     40.832623    43.841906    46.940176
O     31.905791    22.960531    20.287103
O     46.528228     6.906187    36.610663
O     25.098222    25.879754    52.046306
O      9.047606     8.919296    35.387172
O      9.993842    47.363662    35.915045
O      6.360892    12.376554    45.762820
O     25.116070    46.284453    16.010192
O     13.650951    15.872219    12.806378
O     51.847147    46.925686    43.362013
O     42.741272    10.014241    36.230789
O      0.912103    44.734260    38.778783
O      3.166118    10.860249    37.268056
O     16.878481    14.962978    16.738098
O      7.137214    51.063640    43.649355
O     45.841536    15.061194     4.575951
O     51.053415    17.523499     6.486401
O     28.490984    51.032650    55.171889
O     47.268285    13.747130    33.480230
O      0.564681    24.816341    49.648985
O     38.101957    22.353059    22.913423
O     38.502690    18.446799    35.502767
O     51.472246    17.072812     9.697172
O     31.437046    40.308783     1.347883
O      9.817835    30.474606     3.633647
O     16.672434    41.206526    23.962088
O     31.927706    23.991564    22.736874
O      3.429267    23.372269    11.096861
O     50.858975    10.497067    37.422002
O     32.028365    53.063874     7.175183
O      1.621993    19.802299     8.103434
O      7.279215    30.598259    51.286976
O      0.622195    14.372231    49.284122
O     54.836323     5.508630    22.085893
O     50.806836    19.467947     4.820540
O     44.783558    46.548088    13.761150
O     36.671571    10.446274    32.632865
O     55.447791    51.662726    16.811961
O     51.170074    51.430294    52.467959
O     49.251773    55.470699    51.018435
O      9.748225    37.412753    38.180075
O     32.901969    22.807907    17.901262
O     24.632259    44.733735    11.447782
O     11.853239    14.385763    34.630934
O     36.473764    46.650665    21.157795
O     46.091611    11.087154    42.979701
O     45.683110    18.260536    36.917488
O     44.514263    24.179327    42.292765
O     12.198306    53.969272    15.382814
O     17.913852    46.844931    20.025784
O     13.281246    14.123402    39.576378
O     20.251995    14.538727    41.446790
O     21.529324    46.934718    30.522966
O      9.732790    26.441876    52.269324
O     15.226477    29.207492    49.553434
O     35.140889    13.731166    23.552632
O      6.021234    36.258875    19.681271
O     23.768669    34.025065    33.947585
O     37.736313    16.150669    48.175720
O     51.469520    36.116739    23.057084
O     39.523762    15.666225    24.714722
O     46.983108    54.854795    18.719129
O     44.577068     1.471601    12.463228
O     50.355074    47.814756    52.282647
O     39.377381    13.245407    45.011158
O     13.516734    48.430894    18.197109
O     29.850374     5.734286    24.178506
O     53.133917    46.256091    37.293094
O     23.562714    46.491805    13.829293
O     36.476496     4.162755    40.947195
O     45.598384    40.927059    33.490154
O     15.891332     9.539022    30.906446
O     23.119378    29.100217    15.944479
O      5.764485    48.424194    15.379835
O      3.268339    24.110266    52.387622
O      6.997350    28.539580    13.515564
O     18.673651    30.854124    30.511191
O     24.016442    47.963739    29.841489
O     14.075116    10.247425     4.986544
O     28.468866    24.785885    50.211411
O     25.044496    11.660643    46.791599
O     30.982907    11.764822    52.939675
O     10.142574    39.608480    45.582111
O     10.982791    22.000440    22.951184
O     55.608611    15.327211    24.322018
